12
Molecule 1341 / 7211 from QM7b dataset
N -3.0161679326 0.0093568088 0.0205817958
C -1.8477472426 -0.0556721812 0.0087303658
C -0.4308073526 -0.0758009112 -0.0022277642
C 0.3678482574 -1.1558869012 -0.0676090742
C 1.7969576174 -0.7232838512 -0.0363534742
O 1.7668806774 0.7135708788 -0.0188305942
C 0.4136680474 1.1781510288 0.0802732258
H 0.0419136074 -2.1928640012 -0.1231738642
H 2.3202419174 -1.1076235712 0.8618471858
H 2.3624164674 -1.0684301412 -0.9217941242
H 0.1997309074 1.8802001688 -0.7441473742
H 0.2543112474 1.7096097488 1.0369606858
