16
Molecule 4477 / 7211 from QM7b dataset
C -1.6768296023 0.0019299145 0.9782705480
C -0.1460986423 -0.0056187055 0.9137682680
C 0.3754935877 -1.2351067155 0.1124573180
C 0.7113328277 -0.6653021055 -1.2426243520
C 0.7186506877 0.6752199045 -1.2331344120
C 0.3887732777 1.2293790045 0.1298268580
H -2.0498482023 0.8915341545 1.5076255080
H -2.0588847923 -0.8877179155 1.5011389580
H -2.1050908623 0.0077991345 -0.0368163720
H 0.2523183777 -0.0148924555 1.9398784180
H -0.3780846323 -2.0394536055 0.0622064080
H 1.2721899577 -1.6815588955 0.5790278480
H 0.9456063477 -1.2876291655 -2.1082661920
H 0.9598349377 1.3069932245 -2.0899938820
H 1.2901071877 1.6594873345 0.6027846380
H -0.3560811323 2.0424304045 0.0910292980
