17
Molecule 4279 / 7211 from QM7b dataset
C -1.2382249767 -1.1375299625 -1.7847884906
O -0.1843575867 -0.6434334925 -0.9565958206
C -0.5482500367 0.1483508575 0.1046818294
C -1.8047574967 0.4619199875 0.4614194994
C 0.6931729033 0.6241237875 0.8332509494
C 1.4174829533 -0.5221937025 1.5470901194
O 1.5753052933 1.3252709775 -0.0598304706
H -0.7543516967 -1.7100833025 -2.5838043706
H -1.8190548567 -0.3068414425 -2.2175070106
H -1.9122154767 -1.7952061725 -1.2120869406
H -2.6871555367 0.0942750275 -0.0581251106
H -1.9616514367 1.1181224675 1.3150364394
H 0.3765555533 1.3757671575 1.5713219794
H 1.7246092233 -1.2952556725 0.8281551994
H 0.7644494033 -0.9904155125 2.2977394394
H 2.3131599933 -0.1321730025 2.0482714894
H 1.7115331033 0.7390847675 -0.8275142306
