14
Molecule 3543 / 7211 from QM7b dataset
C -0.8972035676 -1.2902473700 -1.1115250807
C -0.7482409476 -0.6763110900 0.2630204493
O -0.8899821476 -1.3198444100 1.2911388993
C -0.3721081576 0.8137043200 0.3059699793
C 1.1264585724 0.9598120400 0.2911698793
C 1.8300370724 1.5489988800 -0.6826327407
H -0.0385797176 -1.0246959200 -1.7455126607
H -1.7941483476 -0.8765390300 -1.5990119107
H -0.9947449376 -2.3784440100 -1.0345795307
H -0.7829150176 1.2204577800 1.2422275493
H -0.8115052076 1.3483381700 -0.5498422507
H 1.6480805724 0.5234047200 1.1493749593
H 1.3420699024 1.9971370700 -1.5521064307
H 2.9179421024 1.6133558200 -0.6356758407
