16
Molecule 2961 / 7211 from QM7b dataset
C -1.4868290425 -2.5400306418 -0.6534985448
C -0.7207155525 -1.3017048918 -1.1259926148
C -0.4771183825 -0.3168440118 -0.0055679748
C 0.7436702075 -0.3945262518 0.8786652052
N 0.6275611775 0.6337900382 -0.1412715648
C 0.5343087375 1.9890673482 0.1557613152
O 1.1914163575 2.5709075282 1.0033422152
H -1.6551499525 -3.2385588018 -1.4843232948
H -2.4709700125 -2.2707295618 -0.2417380348
H -0.9326586425 -3.0764243418 0.1307127952
H -1.2812434025 -0.7951746518 -1.9291603948
H 0.2517159675 -1.5871487818 -1.5569991248
H -1.3784421225 0.0756833182 0.4823961752
H 1.4855719775 -1.1723837418 0.6803006852
H 0.6670428675 -0.0648227018 1.9177203552
H -0.1700215825 2.5099994682 -0.5329502448
