18
Molecule 6698 / 7211 from QM7b dataset
C -1.5335572183 0.2780112579 1.3823529816
C -0.0358534683 0.1024133879 1.1070972916
C 0.3367698517 -1.3227811021 0.6261403416
N 0.3094167417 -1.2214389121 -0.8486274284
C 0.8294733517 0.1026416979 -1.1902369084
C -0.2181441583 1.1817685779 -1.3166612184
C 0.5378094717 0.9966699479 -0.0096966984
H -1.7752418883 1.3276809179 1.6043267216
H -1.8427848883 -0.3300368921 2.2454753216
H -2.1391976583 -0.0352508521 0.5200558216
H 0.5136529817 0.3241211679 2.0357915416
H -0.3820761283 -2.0823252321 0.9731016416
H 1.3388417517 -1.5940080221 1.0179701516
H 0.8480244017 -1.9616978221 -1.2968261784
H 1.7657994017 0.1686824379 -1.7509668284
H 0.0204631817 2.0767432379 -1.8944957784
H -1.2523791183 0.8430932779 -1.3830561284
H 1.2399937917 1.7807275579 0.2750409716
