18
Molecule 5936 / 7211 from QM7b dataset
C -0.3052312120 1.6044797762 -1.4836338118
C -1.4333000020 0.7595383562 -0.9346362718
C -0.0932832320 0.1298090662 -1.2291629018
C 0.8248842780 -0.3621939738 -0.1304469418
C 0.7211869680 0.3283289462 1.2589891082
N -0.1089590720 -0.8048390038 1.7479123182
C 0.3426252980 -1.6479126438 0.6063549282
H -0.3662123520 1.9485323262 -2.5166081218
H 0.1733833180 2.3104989462 -0.8022587018
H -2.2661427420 0.5215319762 -1.5967186018
H -1.7108429020 0.8862583962 0.1125742582
H -0.0583930420 -0.4968587838 -2.1258184618
H 1.8520780380 -0.4240041838 -0.5194040018
H 0.2218153880 1.3102606262 1.3134147982
H 1.7123990880 0.4158180462 1.7395252682
H 0.1525972280 -1.1586076438 2.6704213382
H 1.1772271880 -2.3330819338 0.8421077882
H -0.4664882920 -2.2187719138 0.1225935582
