17
Molecule 4014 / 7211 from QM7b dataset
C -1.4560707648 -1.4695219216 0.7783157782
C -1.1033590848 -0.9504244416 -0.6269161518
C -0.4338726548 0.4052921384 -0.6150076118
C -1.0960526448 1.5447466084 -0.8662048418
C 1.0478980252 0.4514612484 -0.3644349218
C 1.6358945152 0.8141940684 0.9405275882
O 1.6313159852 -0.5548087016 0.4924248082
H -1.9449475148 -2.4524069116 0.7126342382
H -2.1452480748 -0.7785172816 1.2851914682
H -0.5539489048 -1.5761758316 1.3944865482
H -2.0190146148 -0.8850957216 -1.2348498118
H -0.4379590648 -1.6783733916 -1.1198070818
H -2.1588695248 1.5392595984 -1.1164118518
H -0.5981547348 2.5166010484 -0.8374493918
H 1.6569281952 0.6563063284 -1.2558678518
H 0.9612974652 1.0344725584 1.7744264582
H 2.6227645452 1.2879130184 0.9805697782
