15
Molecule 6487 / 7211 from QM7b dataset
N -2.3876886955 -0.1437608636 0.0944770425
C -1.0959409355 -0.0440514836 0.0539744525
N -0.3440764255 1.1059840464 0.3019135325
C 1.0136470445 1.2056754364 -0.2457978675
C 1.8225572145 -0.0304454036 0.1438456425
C 1.0356536345 -1.2794779636 -0.1368250275
C -0.3075472155 -1.2636499736 -0.1962757975
H -2.8215857555 0.7706429664 0.2922013225
H -0.8855070755 1.9674372464 0.2642545825
H 1.4798470945 2.1166670464 0.1552796525
H 0.9972262545 1.2921442664 -1.3502841375
H 2.0854350645 0.0061660864 1.2169771125
H 2.7734067445 -0.0369770036 -0.4109263075
H 1.5786478045 -2.2187034836 -0.2681530575
H -0.8953327355 -2.1612430736 -0.3876116075
