13
Molecule 6373 / 7211 from QM7b dataset
C -2.1687797076 -0.0550839292 0.5694154972
C -0.6309797776 -0.0826636992 0.5104067072
C -0.1358328276 -0.8492024992 -0.7471460928
C 1.3041185224 -1.0842855892 -0.7568044028
N 2.4517160724 -1.2890643292 -0.7499811528
C -0.0908090276 1.2802999008 0.5368195872
N 0.3043560724 2.3772005908 0.5506084172
H -2.5089510076 0.4871775808 1.4597256172
H -2.5602489476 -1.0799628592 0.6151259372
H -2.5863061876 0.4437683008 -0.3154601528
H -0.2422157776 -0.6011336592 1.4023918472
H -0.4158082576 -0.2969627792 -1.6573238928
H -0.6452779276 -1.8242255192 -0.7849979828
