17
Molecule 1495 / 7211 from QM7b dataset
C -2.4765502998 -1.0624653005 0.2757795422
C -0.9978572298 -0.9052764805 0.1321400522
C -0.2872451598 0.2418030395 0.0184328222
C -0.8748100898 1.6262517895 0.0162049722
C 1.2028619802 0.1942463095 -0.1197208878
C 1.9323221602 -1.1417307705 -0.1411930278
O 1.8400927202 1.2430800995 -0.2186776478
H -2.8756994998 -1.6894952205 -0.5381683178
H -3.0202224798 -0.1109234105 0.2724790222
H -2.7165188598 -1.5922652105 1.2123445022
H -0.4425143798 -1.8477261205 0.1203424722
H -1.9625880398 1.6212364195 0.1444076122
H -0.6320991498 2.1432841995 -0.9235450578
H -0.4261703698 2.2319092595 0.8165130422
H 1.6039086002 -1.7629055905 -0.9870018078
H 1.7543312202 -1.7135903705 0.7806854322
H 3.0045030302 -0.9411362705 -0.2384965578
