14
Molecule 3166 / 7211 from QM7b dataset
C -2.0397919046 0.1831671764 0.4560026959
N -0.6778904746 0.2657426464 -0.0336191641
C 0.1154519554 1.4757151164 0.1013716259
C 1.4640411954 0.9821686964 -0.4373369741
O 1.4488802754 -0.4469494736 -0.2208363341
C 0.1368645854 -0.8540755136 -0.0434578241
O -0.1878719446 -2.0171195736 0.0709165759
H -2.3658609846 -0.8595022436 0.3660690359
H -2.7026493946 0.8246239264 -0.1417098641
H -2.1079034446 0.4886183964 1.5152562759
H 0.1771855954 1.7996362464 1.1586908759
H -0.2934845346 2.3045724864 -0.4951303641
H 1.5620452354 1.1699439764 -1.5181464541
H 2.3284392154 1.4026082064 0.0901855659
