16
Molecule 2444 / 7211 from QM7b dataset
C -2.2210602881 -1.1026780685 -0.0061341475
C -0.7356533781 -1.1027472185 -0.2639304675
N -0.2006256381 -0.9483694085 -1.6389033775
C -0.0288351081 0.1463129915 -0.6510461575
C 1.3908777619 0.4306145515 -0.2317713675
C 1.5347058819 1.1632320615 1.0787432825
O 0.6125479219 1.5466535715 1.7756902425
H -2.4308908581 -0.9206943285 1.0580367325
H -2.6716224381 -2.0682551685 -0.2799885075
H -2.7235015181 -0.3135455785 -0.5856500375
H -0.1667193781 -1.8334323385 0.3226836025
H -0.9744884481 -0.7129138985 -2.2707557575
H -0.6624259581 1.0326202715 -0.7575851375
H 1.9228985219 1.0287928215 -0.9965042075
H 1.9730719019 -0.5059093485 -0.1658521675
H 2.5974650519 1.3502889515 1.3872503225
