16
Molecule 3371 / 7211 from QM7b dataset
C -3.1364338828 -1.0419614400 0.7672686855
N -1.6785927728 -1.0469867000 0.6664306955
C -1.1284470828 0.2773223300 0.3661363655
C 0.3665419372 0.2370333000 0.3080972155
C 1.0886952472 0.6770225100 -0.7436498345
C 2.5040049472 0.6638573200 -0.8149340945
C 3.7171806672 0.6727995400 -0.9207186745
H -3.4959477528 -2.0683783600 0.9217335655
H -3.6539896728 -0.6204064400 -0.1202981445
H -3.4398828428 -0.4478410700 1.6432213155
H -1.3873473228 -1.6969081300 -0.0678669345
H -1.4358481428 0.9476571100 1.1912804655
H -1.5330238628 0.7257749300 -0.5686230645
H 0.8773352672 -0.1859580600 1.1779578155
H 0.5647279772 1.0851135200 -1.6161559645
H 4.7848747672 0.6734120400 -0.9994619045
