12
Molecule 2156 / 7211 from QM7b dataset
C 0.9776002452 -0.9540241662 0.1407102977
C -0.4738066548 -1.3825956062 0.0908052377
C -1.3138526848 -0.3376489862 0.1958068377
C -0.5418982748 0.9363802138 0.2712576877
O 0.2684864152 1.1887235638 -0.9211975223
C 0.8914259852 0.5654879838 0.2183917677
H 1.4973733152 -1.3687603662 1.0211417077
H 1.5392954352 -1.2834858462 -0.7486698823
H -0.7759526348 -2.4202800562 -0.0577759623
H -2.4022084548 -0.3879618562 0.1865080577
H -0.9215369648 1.8337766638 0.7651389877
H 1.6783262852 1.1513263138 0.7014062977
