13
Molecule 4165 / 7211 from QM7b dataset
C -2.5837849357 0.3170618425 -0.0131785959
C -1.0888210957 0.2541267725 -0.0052836259
C -0.2187237357 1.3048374125 -0.0010068659
O 1.0959185543 0.8521127125 0.0054029341
C 1.0217118143 -0.4997618275 0.0050612041
O 2.2375166443 -1.0979661775 0.0113261141
C -0.2744203857 -0.9392943275 -0.0013447459
H -2.9360243057 1.3569528525 -0.0060604359
H -3.0097044857 -0.1892508475 0.8663642341
H -2.9998207257 -0.1737382875 -0.9062080659
H -0.3381024157 2.3817421925 -0.0015464559
H 2.0953660443 -2.0604563875 0.0109125841
H -0.6149656657 -1.9702410375 -0.0027784659
