19
Molecule 2200 / 7211 from QM7b dataset
C -3.2592132660 -1.1445512833 1.0459072591
C -1.7419461360 -1.1051357633 0.8593102091
C -1.1945322060 0.3246455667 0.7018003791
C 0.2924151240 0.3661203867 0.5139690391
C 0.9326492040 0.8737164567 -0.5501238209
C 2.4213316340 0.8693357867 -0.7140449109
O 2.8421435940 0.1322318267 -1.8778786109
H -3.6212762660 -2.1766064433 1.1563872591
H -3.7771945360 -0.6998884633 0.1824060391
H -3.5666303860 -0.5839845033 1.9419614391
H -1.4587829460 -1.6941587633 -0.0286628109
H -1.2480200060 -1.5885691333 1.7194031191
H -1.4631088960 0.9023912467 1.6056047791
H -1.6913902060 0.8224473867 -0.1475181209
H 0.8942302040 -0.0673592833 1.3246213791
H 0.3581316340 1.3040760367 -1.3792166709
H 2.9026254140 0.4768473767 0.2014510091
H 2.8006199040 1.8902103667 -0.8789084109
H 2.4294212140 -0.7480473333 -1.8154090509
