19
Molecule 6298 / 7211 from QM7b dataset
C -1.3278862344 -2.3314091889 -1.1477736445
C -0.7666922044 -1.6783498289 0.1174476055
C 0.2203948956 -0.5651070489 -0.1947547745
C -0.3489864044 0.7858769411 -0.6794436845
C 0.2434809356 1.3679548911 0.6218849655
C 1.3309966656 2.4150036411 0.4979630055
O 0.7694063456 0.0556684211 1.0119673155
H -2.0370740444 -3.1328722389 -0.8992925145
H -0.5256609444 -2.7736437989 -1.7582110745
H -1.8602043044 -1.6015920989 -1.7769009445
H -0.2488826744 -2.4290984289 0.7366498555
H -1.5821325144 -1.2676392489 0.7361409555
H 1.0388737656 -0.9602609689 -0.8258376445
H -1.4439740044 0.8238924011 -0.7574881745
H 0.0964886456 1.1826663011 -1.6011456145
H -0.5194257944 1.6972733711 1.3507123455
H 2.0912154156 2.1054795811 -0.2341446945
H 1.8265666656 2.5707184011 1.4669294055
H 0.9011131056 3.3759129211 0.1749087355
