12
Molecule 916 / 7211 from QM7b dataset
O -1.8808889955 -1.7411174905 0.7859503905
C -0.7704510455 -1.6920668505 0.2700763905
N 0.0140886145 -0.5762822905 0.2447989905
C -0.4243777855 0.8111632095 0.4999684905
C 0.7546722445 1.2538460895 -0.3867606395
O 1.2086559545 2.3126736995 -0.7313446595
C 1.1384524545 -0.2228581405 -0.6512950795
H -0.2721224055 -2.5655404505 -0.2118533495
H -0.3690800255 1.1308805795 1.5516859705
H -1.4252776655 1.0428687095 0.1008317305
H 1.0194796345 -0.5401144605 -1.6997202195
H 2.1364692845 -0.5070738605 -0.2833178895
