16
Molecule 6362 / 7211 from QM7b dataset
C -0.3100904671 -2.7429502903 -0.7683902913
C -0.8138540271 -1.5009608303 -0.0425625213
N 0.2041540129 -0.4429152203 -0.0632680413
C 0.1616349629 0.4507354997 -1.2169104013
C -0.3194732471 0.9271361397 0.1273585987
C 0.4342280329 1.8432308397 0.9384787987
C 1.0475405629 2.6441615497 1.6146075687
H -1.0578068871 -3.5467962403 -0.7201973213
H 0.6217919629 -3.1047548703 -0.3128928013
H -0.1106105671 -2.5283664603 -1.8286359113
H -1.0200384471 -1.7333520203 1.0143464487
H -1.7686488471 -1.1555748203 -0.4958660813
H -0.6124046471 0.2853061497 -1.9755904213
H 1.1285181129 0.7963758297 -1.5872245313
H -1.4090209071 1.0201442797 0.2199930187
H 1.5992272329 3.3393072497 2.2134533787
