14
Molecule 488 / 7211 from QM7b dataset
C -0.5296765904 1.6047245678 -1.0456452436
N -1.6604804604 0.8751533578 -0.4294775836
C -0.3656125004 0.1860180978 -0.6251256836
C 0.3678302696 -0.1846549222 0.6239774864
C 0.5272708996 -1.6034110022 1.0456348764
N 1.6613287096 -0.8777376222 0.4303363064
H -0.5539037904 1.8203379378 -2.1169411036
H -0.1140185104 2.4024302778 -0.4243898536
H -2.3232378004 0.5826817978 -1.1535185936
H -0.2840600804 -0.5548484922 -1.4276793436
H 0.2876387596 0.5567257478 1.4261901064
H 0.1102632696 -2.4004015622 0.4243918864
H 0.5493888496 -1.8184140122 2.1168372264
H 2.3231190896 -0.5864822922 1.1560500064
