17
Molecule 6189 / 7211 from QM7b dataset
C -2.3393505996 1.4885854215 -1.0111814211
C -1.8577801796 0.2489409115 -0.8637328411
C -1.0988961896 -0.2451291985 0.3341270789
C 0.3167200104 -0.7094099485 -0.0152568911
C 1.3674283004 0.3700358315 -0.3562702611
O 2.2721129004 -0.1171125785 0.6792792889
C 1.2661888504 -1.0578092785 1.1520115289
H -2.8762135496 1.7907608315 -1.9114509511
H -2.2170920996 2.2421441815 -0.2286774311
H -2.0018192796 -0.4768361185 -1.6736133511
H -1.6413534996 -1.0947812285 0.7879697289
H -1.0496841096 0.5478432415 1.0996017389
H 0.2786059404 -1.5059797085 -0.7736215311
H 1.0374037104 1.4053340615 -0.1571013211
H 1.8289301104 0.3210781515 -1.3551042811
H 1.6554536904 -2.0880596285 1.1894825389
H 0.8830047304 -0.7758855885 2.1500973889
