21
Molecule 6915 / 7211 from QM7b dataset
C -2.4211324300 -1.7488687679 -0.4191500572
N -1.0442120000 -1.5049527079 0.0073228428
C -0.6190169900 -0.0983462579 -0.0866527472
C -1.2922947500 0.7284405621 1.0138906128
C 0.9128804100 -0.0538003979 -0.0010742372
C 1.5366379200 1.3248861121 -0.2168996172
N 3.0021772700 1.2059605521 -0.3152731772
H -2.5914660400 -2.8322535279 -0.4842674172
H -2.6759409400 -1.2968988879 -1.4022500072
H -3.1307653200 -1.3551441779 0.3231566328
H -0.4185832100 -2.0637032179 -0.5776962472
H -0.9180573700 0.3361952321 -1.0709489272
H -0.9874062400 0.3582407221 2.0046326128
H -2.3872776500 0.6662465721 0.9492523228
H -1.0231592800 1.7904813421 0.9337116228
H 1.3361369700 -0.7286493679 -0.7654379772
H 1.2202316200 -0.4559602579 0.9811044928
H 1.2025284900 2.0170636821 0.5809023528
H 1.1735843100 1.7414636921 -1.1718835272
H 3.3775500300 0.8715541321 0.5771897028
H 3.4144227800 2.1304416521 -0.4624970172
