17
Molecule 3750 / 7211 from QM7b dataset
C -2.9185766951 -1.7504858668 0.8761820603
C -2.0035680351 -1.3268515068 -0.0006892897
C -1.3138770451 -0.0012070268 0.0781483303
O 0.0982802049 -0.2039898768 -0.0106719397
C 0.8102214049 1.0351369832 -0.0379825397
C 2.2800026249 0.7542393332 -0.0236611897
C 3.1530282749 1.2753857032 -0.8907673697
H -3.4223587351 -2.7105100168 0.7569735903
H -3.1991961451 -1.1457720568 1.7424874303
H -1.7263560051 -1.9505716768 -0.8565476697
H -1.5756990551 0.5208108732 1.0205272703
H -1.6467754751 0.6447812432 -0.7626601597
H 0.5355230049 1.6373436932 0.8547370003
H 0.5332136149 1.6262630732 -0.9340964897
H 2.6233142249 0.0899987332 0.7759015603
H 2.8268550549 1.9314400132 -1.7019804797
H 4.2218547049 1.0708294232 -0.8173465497
