16
Molecule 406 / 7211 from QM7b dataset
N -2.0348337618 -0.0603066712 0.8064417698
C -0.5775144018 -0.0373690912 0.8004560698
C 0.0326027682 1.0194432988 -0.1887250602
C -0.3105014118 0.0174875588 -1.3372445702
C 0.0862827882 -0.9927807912 -0.2390147302
O 1.4982337882 -0.7431672512 -0.0274429202
C 1.5184223182 0.7220620188 0.0074449098
H -2.3937960118 0.7517616688 1.3144727598
H -2.3670699218 -0.8846006712 1.3129057098
H -0.0988238918 -0.0730312812 1.7986917098
H -0.2846302818 2.0702903888 -0.1945379102
H 0.3085512882 0.0353706588 -2.2443939802
H -1.3814829218 0.0018291588 -1.5589853402
H -0.0922838918 -2.0736741312 -0.2850874102
H 2.1566413582 1.1060674288 -0.8046876202
H 1.9151079382 1.0604135288 0.9785733398
