14
Molecule 3493 / 7211 from QM7b dataset
C -2.6641117200 -1.7593144340 -0.2711400329
O -1.3212151600 -1.6013634340 0.2046434971
N -0.9698855100 -0.2413531340 0.1135946571
C 0.2333733500 -0.0437238040 0.5091663371
C 0.7734134500 1.3623184560 0.4999008971
C 2.0214942700 1.4751114060 -0.2507098129
C 3.0603299100 1.5465809960 -0.8733062229
H -2.8800186300 -2.8299290040 -0.1722273729
H -2.7467758400 -1.4557670640 -1.3255040329
H -3.3696816300 -1.1760389040 0.3394126071
H 0.8762908200 -0.8654680340 0.8502577771
H 0.9513203100 1.6906210760 1.5399134971
H 0.0067996300 2.0310628960 0.0792445071
H 3.9739896300 1.6200627260 -1.4268745529
