16
Molecule 4883 / 7211 from QM7b dataset
C -0.8162633798 -0.2865996442 1.7106104420
C -0.0834992298 -0.3342440642 0.3628122920
C -0.9226508598 -1.1486414042 -0.6143546280
O -0.7592727498 -2.3319754142 -0.8406188480
N 0.0614394502 1.0214822058 -0.1776074580
C 1.2252390702 1.7712562158 0.3095017420
C 1.2067949902 1.2256634758 -1.0784469480
H -0.2381847798 0.3126168158 2.4279650420
H -0.9391883898 -1.2985206442 2.1183599020
H -1.8058263398 0.1783631658 1.5968477220
H 0.8887773102 -0.8551992242 0.4860624920
H -1.7425994098 -0.5621232742 -1.1042908380
H 1.8885466002 1.2775359558 1.0275789320
H 1.0582974102 2.8356918658 0.4869291520
H 1.0219745802 1.8850610658 -1.9284132580
H 1.8545853202 0.3673946758 -1.2835735580
