17
Molecule 531 / 7211 from QM7b dataset
N -1.6867090614 -1.7246298000 0.9761634809
N -0.5981118814 -1.6398898200 0.1182977209
C -0.1053051814 -0.4716149100 -0.0953286091
C -0.5800843514 0.8582708500 0.4670428809
C 0.3687429686 1.8997633800 -0.1614747391
C 1.6581591386 1.1085582600 -0.4545210691
C 1.1408640286 -0.2601161100 -0.9309569591
H -2.1972737414 -2.5827970800 0.7756709109
H -2.3184691814 -0.9150979700 0.9533925509
H -0.4925037814 0.8377352500 1.5686978009
H -1.6421953014 1.0630111500 0.2440598209
H -0.0603993014 2.2677606500 -1.1077918591
H 0.5351076386 2.7733542900 0.4840347109
H 2.3085140086 1.6064078400 -1.1868642791
H 2.2374947486 0.9833674900 0.4750098509
H 0.8720515586 -0.2074065800 -2.0018275991
H 1.8571603386 -1.0838665200 -0.8141793491
