13
Molecule 4622 / 7211 from QM7b dataset
O -1.9510411771 -0.2336034967 -0.4348298211
N -0.5600674471 -0.3484282967 -0.3560454011
C 0.0867197029 -1.5020347567 0.1033592089
C 1.3395134329 -1.1955163767 0.4984492189
C 1.5390749529 0.2992625333 0.3575115789
C 0.1611018729 0.7939289433 -0.0645692211
N -0.4544117871 1.9270747233 -0.1207450711
H -2.0338175371 0.7587907433 -0.3527629511
H -0.4177389371 -2.4609176867 0.0259666089
H 2.1133603329 -1.9064722267 0.7692302589
H 1.8641538729 0.7917562733 1.2862268989
H 2.2843899229 0.5445828133 -0.4179147411
H 0.1408766329 2.7167210133 0.1369210889
