17
Molecule 1638 / 7211 from QM7b dataset
C -2.3234061966 -1.3611875242 0.3320965407
C -0.8139128966 -1.2639999042 0.1256626307
C -0.3412929766 0.1842972158 0.0113848607
O -1.1092436266 1.1440055358 0.1644694007
N 0.9901865734 0.3963408958 -0.2739945293
C 2.0504580334 -0.5935429942 -0.1619465593
N 1.4625751834 1.7411321458 -0.1771906393
H -2.6275488166 -2.4130402642 0.4219238607
H -2.8663493866 -0.9110070542 -0.5090498593
H -2.6310589866 -0.8274203042 1.2401170807
H -0.5143526466 -1.8175958542 -0.7792385493
H -0.2833957266 -1.7438567242 0.9655240407
H 1.6476432634 -1.5986538042 -0.3184030393
H 2.5404602134 -0.5394809142 0.8242138807
H 2.8102086434 -0.4049732942 -0.9335888993
H 0.6605589034 2.2495720658 0.2265486407
H 1.5373754734 2.0986998158 -1.1386910193
