15
Molecule 4579 / 7211 from QM7b dataset
O -1.5298656677 0.3555412781 0.4098942679
C -0.1553250377 0.1007008581 0.5942449679
C 0.5638046723 -0.1606703119 -0.7518521021
C 0.0216594023 -1.3689355019 -1.4585765821
C 0.7596161923 -2.4182556419 -1.8367906821
C 0.5052787723 1.2447832381 1.3298214979
O -0.1239828377 2.2284481681 1.6838264479
H -1.6862278677 1.2281290281 0.8349612179
H -0.0144584477 -0.7995517619 1.2319709479
H 1.6449626523 -0.2818826719 -0.5726118121
H 0.4213815323 0.7372867981 -1.3778656321
H -1.0540293577 -1.3567039319 -1.6584650421
H 1.8364506823 -2.4582391219 -1.6512310421
H 0.3143967023 -3.2712679319 -2.3506149521
H 1.5981081423 1.1445781781 1.5330079879
