20
Molecule 5471 / 7211 from QM7b dataset
C -2.7897827158 -0.8883146510 -0.4321699306
C -1.2664194858 -0.9281303410 -0.5543120206
C -0.6271549858 0.4638711090 -0.4202670406
O -0.9199595858 1.0584950890 0.8493524194
C 0.8959461242 0.4537909390 -0.6241806606
N 1.5499787242 -0.1440910610 0.5464284894
C 2.9887099642 0.1177272590 0.6083788794
H -3.2234886258 -1.8972438110 -0.4758947006
H -3.2347125258 -0.2958606410 -1.2467144106
H -3.0846539158 -0.4250956810 0.5192539794
H -0.9749331558 -1.3572307210 -1.5293290506
H -0.8544681458 -1.5927136710 0.2255327694
H -1.0731082758 1.1234392590 -1.1865147506
H -0.1667303658 0.7716506190 1.4134718794
H 1.2408374742 1.4981769790 -0.6876642306
H 1.1597336342 -0.0413468510 -1.5816921906
H 1.3954278842 -1.1550871410 0.5418320594
H 3.1554770142 1.1980002390 0.7327513594
H 3.5453559542 -0.2095846210 -0.2928636206
H 3.4172952642 -0.3900931310 1.4833167694
