17
Molecule 5658 / 7211 from QM7b dataset
C -2.0839212606 0.0430015558 -0.6961343564
C -0.5590768906 0.0605028458 -0.6340481664
C 0.0455234594 1.1850338358 0.2251670936
C 1.4615033794 0.6758119058 0.4891598536
N 1.2500156394 -0.7593810942 0.7545933136
C 0.0637315794 -1.2119484642 -0.0116250964
H -2.4533735806 -0.7966005942 -1.3040506064
H -2.4778484006 0.9705080358 -1.1375991664
H -2.5122665006 -0.0601050442 0.3134757936
H -0.1631970106 0.1746568458 -1.6592051664
H -0.5070585906 1.2707606358 1.1759045636
H 0.0267691394 2.1643594158 -0.2734185464
H 2.0977126494 0.8725258458 -0.3995068764
H 1.9371162094 1.1636197158 1.3547560336
H 2.0773289894 -1.3109824742 0.5330438136
H 0.3179845994 -1.9512372742 -0.7909595864
H -0.6598385806 -1.6962475242 0.6702905836
