14
Molecule 2588 / 7211 from QM7b dataset
C -2.0062879972 -1.6021109136 0.4599763328
C -0.5451132772 -1.3209832836 0.3793204828
C 0.0512120128 -0.1442867436 0.0393603228
C -0.6466132572 1.0938553864 -0.3190711372
C -0.0408845572 2.2492333764 -0.6427600672
C 1.4874003228 -0.1042930936 0.0302451828
N 2.6546013928 -0.0403674436 0.0132663228
H -2.2654667272 -2.4518409336 -0.1914983072
H -2.6375778172 -0.7516464136 0.1803193128
H -2.2772063972 -1.9083279436 1.4834941828
H 0.1164369428 -2.1560487536 0.6239242728
H -1.7370682472 1.0480138564 -0.3135646072
H 1.0465862828 2.3418516664 -0.6603014372
H -0.6261932672 3.1320822564 -0.8976643772
