13
Molecule 2467 / 7211 from QM7b dataset
O -1.8808103575 -1.8795277225 0.1182173802
C -0.6677938075 -1.7085598325 -0.0015785698
C -0.0351151975 -0.4021457725 0.0097947202
N 1.2662794125 -0.2987786225 -0.1162028798
N 1.6108365425 1.0018797775 -0.0093845998
C 0.4355591925 1.8944314275 -0.1600747898
C -0.7127575075 0.9375210975 0.2122951302
H 0.0415961325 -2.5597104625 -0.1389913598
H 2.5002978925 1.2326400875 -0.4469026898
H 0.3524672325 2.2457716075 -1.2036469198
H 0.5228282325 2.7646360275 0.5022675102
H -1.6096646275 1.0562478375 -0.4068395898
H -1.0202097675 1.0474470775 1.2648674202
