19
Molecule 4941 / 7211 from QM7b dataset
C -1.7943479796 0.8524726617 0.4721810871
C -1.1898006096 -0.2435489783 -0.3750650329
C -0.3803060796 -1.3676969783 0.2513768271
C 1.0627263004 -1.3720394783 -0.2957208929
C 1.7469549804 0.0249452517 -0.2168681429
C 0.8328090304 1.1099018217 0.3904538571
C -0.5222117696 1.1195928917 -0.2988707129
H -2.7142641696 1.3223630117 0.1221674771
H -1.7205278296 0.7558759317 1.5584684871
H -1.7113947796 -0.4904546783 -1.3034221829
H -0.3608411396 -1.2491893183 1.3470465471
H -0.8561270496 -2.3419471483 0.0615175871
H 1.6569541304 -2.1212876883 0.2501451071
H 1.0365200804 -1.7101737883 -1.3438943929
H 2.6775707504 -0.0365195483 0.3685523771
H 2.0447392904 0.3463468217 -1.2276757729
H 0.7025010504 0.9234260817 1.4689025171
H 1.3165292804 2.0953982517 0.3108019471
H -0.6066028496 1.7643989217 -1.1775316329
