12
Molecule 6843 / 7211 from QM7b dataset
C -2.1457157498 0.3601848268 -0.0032103346
C -0.6641880198 0.4281418268 -0.0000387246
C 0.1988000802 1.4603998568 0.0046512654
C 1.5715686502 0.8700830568 0.0054570954
N 1.6228184802 -0.4235094232 0.0016460054
C 0.2210939602 -0.8230226332 -0.0018649846
O -0.1628038698 -1.9713962432 -0.0056168746
H -2.6016064198 1.3574299368 0.0024339154
H -2.5069045598 -0.2026249832 0.8711407354
H -2.5036475998 -0.1908713632 -0.8863922746
H -0.0212746998 2.5268788568 0.0074125554
H 2.4867813502 1.4702018568 0.0088521254
