16
Molecule 3281 / 7211 from QM7b dataset
O -2.0423057444 0.4480782257 -0.5218898510
C -0.6192374644 0.3898653057 -0.4932845110
C -0.0309842044 1.5004501457 0.3835585290
N 1.3358756456 1.0613580657 0.7069203890
C 1.2227390856 -0.4039022943 0.9028383790
C -0.0276532244 -0.9017345143 0.1212738790
O 0.2083383556 -1.9432270843 -0.8352201310
H -2.3578193744 -0.2993819743 -1.0600271510
H -0.2094275944 0.4929476957 -1.5220997510
H -0.6264100444 1.5800184857 1.3100488890
H -0.0274943944 2.4855652557 -0.1002346410
H 1.9387809356 1.2472767757 -0.0986921310
H 2.1362469956 -0.9221071043 0.5780631590
H 1.0994160556 -0.6120528243 1.9784164790
H -0.7732125444 -1.3307940143 0.8082731990
H 0.8713444056 -1.6178597443 -1.4716285710
