17
Molecule 4712 / 7211 from QM7b dataset
C -0.9800266812 -1.9310575528 1.0248776658
C -1.1960007412 -0.9111472028 -0.1060588342
C -0.0002038512 -0.0382142128 -0.3605035642
O 0.3997116888 0.8917093472 0.5900314258
C -0.6179218012 1.5444962872 1.3589641858
N 0.7282732588 -0.2256455928 -1.4030665942
N 1.8021143988 0.6321927572 -1.6021422342
H -1.8809336312 -2.5439541928 1.1704390358
H -0.7473683012 -1.4424347428 1.9818333758
H -0.1438116012 -2.6011221728 0.7816310858
H -2.0848477312 -0.2952340228 0.1119351258
H -1.3989664612 -1.4328511828 -1.0503947942
H -0.0955302912 2.2696208672 1.9945205558
H -1.1707179112 0.8399063572 1.9998427958
H -1.3249677112 2.0811059672 0.7068941958
H 2.5091347688 0.1437335572 -2.1481123642
H 2.1925202088 1.0172607272 -0.7360553342
