12
Molecule 325 / 7211 from QM7b dataset
C -2.0372415630 -0.7451225486 -0.9956553150
O -1.4555479230 -0.3463730886 0.2616068050
N -0.6771510530 0.8155771314 0.0775105950
C 0.6927106470 0.7364835714 0.2898569650
O 1.3599686470 1.7398065514 0.5293307350
C 1.2735879170 -0.5834596386 0.1279727550
C 1.8722510970 -1.6333769586 0.0147787550
H -2.6340596130 -1.6342857986 -0.7580664850
H -1.2552864130 -1.0002134186 -1.7258717050
H -2.6872650230 0.0464791514 -1.3989610550
H -1.1229491530 1.6470389014 0.4749341950
H 2.3964031970 -2.5626730086 -0.0838283950
