16
Molecule 4369 / 7211 from QM7b dataset
C -0.4427855170 1.5305202383 -1.5489428607
N -1.4585555870 0.6737832783 -0.8988158307
C -0.1283165570 0.1163384383 -1.2091260907
C 0.7634071230 -0.2434976117 -0.0495687407
C 0.5023300730 0.4195420483 1.3183370193
C 0.3256595330 -1.0200791317 1.8332690093
O 0.4614079130 -1.5722264717 0.4897139293
H -0.5559702570 1.7913418783 -2.6039750407
H -0.0622085570 2.3362938183 -0.9150250707
H -2.1408807370 0.3477406483 -1.5889992107
H -0.0556021170 -0.5843587517 -2.0482221707
H 1.8187612230 -0.1998987817 -0.3804949907
H -0.4207010170 1.0115440583 1.3341903793
H 1.3379082730 0.9884408883 1.7423463693
H 1.1293538330 -1.3813182817 2.4973703393
H -0.6538027670 -1.2654005417 2.2729987593
