20
Molecule 1801 / 7211 from QM7b dataset
C -1.7244461266 0.1095340475 0.1381028033
C -0.1813833166 0.0953403775 0.1041769433
C 0.3608324234 -0.4802633425 1.4199341133
C 0.3042785434 -0.7793340625 -1.0907856867
N -0.1467054766 -2.1757570825 -0.9898819967
C 0.3072341434 1.5034821875 -0.1604031867
C 1.1478861734 2.2328738175 0.5826624333
H -2.1341138066 0.5836789675 -0.7673691467
H -2.0890902066 0.6725697875 1.0093183733
H -2.1056264566 -0.9197011225 0.1853692633
H 0.0668338934 0.1451125475 2.2755847133
H 1.4598390734 -0.5502674425 1.4105309433
H -0.0496725066 -1.4856403525 1.5920212633
H 1.4048189134 -0.6709144725 -1.1629572367
H -0.1184959466 -0.3576426025 -2.0174519167
H 0.4708141134 -2.7028969725 -0.3688100167
H -0.0810921766 -2.6267825525 -1.9038420067
H -0.0929863466 1.9505098075 -1.0800690867
H 1.5836381834 1.8575896575 1.5106103233
H 1.4256605634 3.2448861775 0.2841139833
