12
Molecule 1732 / 7211 from QM7b dataset
O -1.5081582143 -1.6725441682 0.0569179752
C -1.7527380643 -0.4959069082 -0.1343030848
C -0.7638581843 0.6337772318 0.0291713952
C 0.6249420757 0.2031862918 0.4267154252
C 1.6967248357 0.0309966418 -0.5654718548
O 1.6565976357 1.2011728618 0.2777520552
H -2.7770356643 -0.1678439282 -0.4517565248
H -1.1860573043 1.3278597218 0.7803247352
H -0.7426310143 1.2135951118 -0.9103802648
H 0.6920958857 -0.3809314482 1.3512120652
H 1.4806986457 0.2117896118 -1.6244694048
H 2.5149901057 -0.6658181582 -0.3589621348
