16
Molecule 193 / 7211 from QM7b dataset
C -2.6087688151 -0.1386336129 -0.5179686651
N -1.1600771151 -0.0905965529 -0.5156753451
C -0.4962415851 1.0456479371 0.1571344249
C 0.6127089849 0.0712888371 0.6614627449
C -0.4307296551 -1.0422508529 0.3478326949
C 1.8037409749 0.0280846771 -0.2549560851
O 2.9600719049 0.1515357471 0.1073679349
H -2.9463086351 -1.0835252729 -0.9678441651
H -3.0072452751 0.6844480771 -1.1288841951
H -3.0452143451 -0.0611525229 0.5026794849
H -1.0722235851 1.4518435871 1.0141497349
H -0.1979173651 1.8744843071 -0.5050726751
H 0.9392592449 0.1804845571 1.7016422749
H -0.0778620451 -1.9563258529 -0.1569923651
H -0.9865524551 -1.3230573829 1.2659148149
H 1.5497696049 -0.1301315129 -1.3358396551
