17
Molecule 2135 / 7211 from QM7b dataset
C -0.7621561850 -0.0623923433 -2.6233804777
O -1.4893546750 -0.6938219133 -1.5459795377
C -0.9512926750 -0.5531397933 -0.3209839377
N 0.1295770450 0.0974031467 -0.0972694177
N 0.4505969950 0.0647381467 1.3311119123
C 0.4853791050 1.4583286267 1.7874925023
C 1.7846067950 -0.5335785233 1.4469901523
H -1.3403949250 -0.2771285733 -3.5281230177
H 0.2513299550 -0.4802577433 -2.6963057377
H -0.6869752350 1.0202012167 -2.4521591177
H -1.5441780650 -1.0577321533 0.4524492823
H -0.5167137650 1.8980667667 1.6982216323
H 1.1991297150 2.0777417267 1.2064706623
H 0.7777471650 1.4690873667 2.8468430723
H 1.7492803750 -1.5755944733 1.1032250223
H 2.0781800050 -0.5255559133 2.5059764923
H 2.5469916550 0.0114502367 0.8536311123
