13
Molecule 757 / 7211 from QM7b dataset
N -2.3171463562 -1.0815886004 -0.4528541958
C -0.9746357062 -1.1003945704 -0.0726817558
N -0.2893939762 -2.1390371304 0.2743544042
C -0.3192294162 0.2235337396 -0.1610510458
C 0.9668013638 0.4151465796 0.2075777842
C 1.6380549038 1.6544112396 0.1482313142
C 2.2553136638 2.7043149096 0.1108312342
H -2.8135666062 -0.1985088004 -0.3667944058
H -2.8734512962 -1.8909462204 -0.1925363958
H -0.8724401962 -2.9854276104 0.2995633742
H -0.9069090162 1.0637316796 -0.5393018658
H 1.5212694238 -0.4560608804 0.5735639542
H 2.7930511638 3.6295205596 0.0775586942
