17
Molecule 5722 / 7211 from QM7b dataset
C -2.0155713514 0.4446134706 -0.4788992527
C -0.4954820414 0.4165875706 -0.4877654727
C 0.2917414286 1.4366950306 0.3714662873
N 1.1906688686 0.3554386206 0.9043583173
C 0.2578026886 -0.6763798294 0.3227510273
C 0.9034362786 -1.8334032394 -0.4121145827
H -2.4385621314 -0.4284012694 -0.9993312127
H -2.4034749914 1.3449220606 -0.9797429227
H -2.4025618214 0.4422653806 0.5522790073
H -0.1184386814 0.4253424006 -1.5255303527
H -0.3131477414 1.8659333706 1.1888885873
H 0.7991578186 2.2592296606 -0.1540741027
H 2.0597240986 0.3478199806 0.3602493273
H -0.3789618414 -1.0664896194 1.1393441873
H 1.5034479386 -1.4768742794 -1.2650698927
H 0.1424393986 -2.5276686694 -0.7993018327
H 1.5641338586 -2.4028273794 0.2591529473
