13
Molecule 3970 / 7211 from QM7b dataset
C -2.5613512217 -0.4548452036 -0.0949279794
C -1.0731502617 -0.3023086136 -0.0075199994
C -0.3162425017 0.8546711764 -0.2419883094
N 0.9684521383 0.4780021964 -0.0452167294
O 2.0649352583 1.3198126264 -0.1664961594
N 1.1468734783 -0.7913862136 0.2931904406
C -0.1160354217 -1.2830182436 0.3181181906
H -3.0858383417 0.2966736164 0.5131513906
H -2.8672554717 -1.4453150036 0.2675081006
H -2.9237070517 -0.3546582336 -1.1293243894
H -0.5776558517 1.8695019464 -0.5190561294
H 2.8033180483 0.7098861264 0.0504904706
H -0.2749462717 -2.3278960336 0.5712924406
