17
Molecule 3698 / 7211 from QM7b dataset
C -1.8991656551 -0.3943017473 0.3267473560
C -0.3713241951 -0.4349657973 0.1687108860
C 0.0553514949 -1.2372752773 -1.0817862840
N -0.3995625751 -2.6321716173 -0.9901774540
C 0.1930722149 0.9533500727 0.0985646960
N 1.0615385349 1.3420913227 0.9568078660
O 1.4599677349 2.6844296227 0.7078762060
H -2.1853213751 0.0748346227 1.2777136660
H -2.3020886451 -1.4146127173 0.2909215360
H -2.3622032751 0.1813846927 -0.4905451240
H 0.0745114549 -0.9211494673 1.0538128160
H 1.1501965349 -1.1274789773 -1.2081052540
H -0.4172033151 -0.7872717973 -1.9717499140
H 0.1675437749 -3.1354058173 -0.3026393640
H -0.2509589051 -3.1058099773 -1.8831941240
H -0.1527326251 1.6315010927 -0.6975679440
H 2.0970796249 2.8382899227 1.4285112460
