17
Molecule 6905 / 7211 from QM7b dataset
C 1.1194681549 1.1880964993 -0.3212858705
C -0.2008640551 1.5546379593 0.3785320995
C -1.4112828451 0.8046985793 -0.1151074205
C -1.5469770451 -0.5260220807 -0.2095162905
C -0.5587920851 -1.6003328207 0.1576047995
C 0.9231245349 -1.3371672507 0.1433942495
C 1.6198978849 -0.2107420507 -0.0750175505
H 1.8994600149 1.8931907493 0.0112520495
H 1.0108714449 1.3589213193 -1.4076448705
H -0.0778988451 1.3848518293 1.4631271595
H -0.3740357651 2.6347663393 0.2571645295
H -2.2702880551 1.4142214393 -0.4130767705
H -2.5105321051 -0.9074072707 -0.5635526405
H -0.7340670351 -2.4666139807 -0.5071299205
H -0.8339938851 -1.9950448107 1.1585441595
H 1.5124635549 -2.2440354907 0.3197637695
H 2.7105734149 -0.3118631307 -0.0700715605
