16
Molecule 5020 / 7211 from QM7b dataset
C -2.2520035767 -0.0386846365 0.0962452234
C -0.7578365967 -0.0759444865 0.0424012534
C 0.0325825433 -1.1609027265 -0.0283900666
C 1.5000767933 -0.8124122865 -0.0038696266
C 1.4986310333 0.7187397035 -0.2489420566
C 0.0733129333 1.1897361535 0.1255145934
H -2.6878472067 -1.0455244965 0.0457900534
H -2.6639947967 0.5572902835 -0.7349882166
H -2.6029266067 0.4407079935 1.0254696934
H -0.3336122767 -2.1897869465 -0.0531105966
H 1.9451368233 -1.0708114465 0.9752384534
H 2.0869405633 -1.3573773165 -0.7606060266
H 1.6747786333 0.9130609635 -1.3177862766
H 2.2848634033 1.2424000635 0.3121940134
H -0.2998285567 1.9846061035 -0.5412711066
H 0.0279112433 1.6022444735 1.1513140834
