11
Molecule 1509 / 7211 from QM7b dataset
C -1.1901901100 -0.5247749669 -0.0023259880
C 0.3390924300 -0.4788922069 0.0020898820
C 0.8902409300 0.9483645631 0.0004701320
H -1.5665313700 -1.5580243969 -0.0049524280
H -1.5989825000 -0.0173518869 -0.8901184480
H -1.6038794600 -0.0200907669 0.8847600720
H 0.7255809200 -1.0227850869 -0.8761125380
H 0.7201678600 -1.0189108869 0.8850343320
H 0.5555850300 1.5009414531 -0.8914026880
H 1.9898080600 0.9602903631 0.0079865820
H 0.5433919600 1.5077468731 0.8834009620
