18
Molecule 5334 / 7211 from QM7b dataset
C -2.6577070072 -0.2417892472 0.0074591791
C -1.1687150672 -0.1377938272 -0.2661670609
C -0.3544637572 0.9870256328 0.4225299291
C 0.7133899228 -0.0905043572 0.7338538491
N -0.3240144372 -1.1465727872 0.4510305591
C 1.9097536028 -0.1683662272 -0.1712994409
C 2.3358760528 0.7540793828 -1.0424677609
H -3.0695159072 -1.1745083172 -0.4061434109
H -3.1984542972 0.5986355328 -0.4538944409
H -2.8498982572 -0.2367937372 1.0902043291
H -0.9844227172 -0.1300726472 -1.3572942709
H -0.8453864372 1.3523684228 1.3345289491
H -0.0542425572 1.8417921928 -0.1945757209
H 1.0550980628 -0.1293590972 1.7838072391
H 0.0201974128 -1.9026817172 -0.1494850809
H 2.4748097528 -1.1057425172 -0.0823975809
H 1.8330440028 1.7156413828 -1.1651781209
H 3.2180695228 0.5808218728 -1.6602379709
