13
Molecule 2683 / 7211 from QM7b dataset
C -2.0086496675 -1.7377594077 -1.0035870505
C -1.3706815375 -1.2006869477 0.0416050995
C -0.6445005775 0.1126535323 0.0177994395
C 0.8607883625 -0.0625477677 0.3351612195
C 1.5796421225 1.2072429923 0.3651512795
N 2.1345099425 2.2332824923 0.3813284095
H -2.5252168075 -2.6952383277 -0.9264720205
H -2.0419716675 -1.2316950777 -1.9719058105
H -1.3617445975 -1.7395351477 0.9966689595
H -1.0778283175 0.7961855223 0.7662862395
H -0.7571576275 0.5948480123 -0.9642488005
H 1.3315571125 -0.7138936677 -0.4173862405
H 0.9912000925 -0.5570631677 1.3109788795
