15
Molecule 2226 / 7211 from QM7b dataset
C -2.2784682709 -0.0619886042 -0.5809777750
N -0.8336251209 -0.0361059542 -0.3870821850
C -0.2083809609 1.1968781758 -0.1177041550
C 1.0844772891 1.2389260958 0.2415157550
C 1.8746455891 -0.0433888142 0.2842417050
N 1.0295926591 -1.2269607042 0.5327400450
C -0.1916172009 -1.1554526542 0.1566045350
H -2.5877086609 -1.0811741942 -0.8436157150
H -2.5527247009 0.5985211258 -1.4147101150
H -2.8332405509 0.2535741158 0.3203232050
H -0.8526650209 2.0746705058 -0.1743570250
H 1.5451567691 2.1873669558 0.5173636050
H 2.4182835091 -0.2074403442 -0.6687527150
H 2.6506849391 -0.0038878042 1.0655869350
H -0.8434977209 -2.0300089442 0.2764764150
