21
Molecule 7081 / 7211 from QM7b dataset
C -2.3812541376 -1.0343623883 -0.4020766619
C -0.9047351976 -0.7195340883 -0.1330300519
C -0.0145064476 -1.8875050483 -0.5752171919
C -0.5126641476 0.6057187317 -0.8111528819
C 0.9050137324 1.1237402817 -0.4994777519
C 1.1307119924 1.4238474817 0.9545589181
C 2.1209499324 0.9282996117 1.7062197381
H -3.0358223276 -0.2172041383 -0.0627192619
H -2.6946435376 -1.9545390283 0.1134555081
H -2.5606642076 -1.1798515983 -1.4804264519
H -0.7747083476 -0.5890665183 0.9570153781
H -0.0775127876 -2.0363378883 -1.6660991119
H -0.3301949376 -2.8249086883 -0.0932289019
H 1.0413411024 -1.7246069983 -0.3170578319
H -1.2424211676 1.3806173117 -0.5158069119
H -0.6150764776 0.4915574217 -1.9054381719
H 1.0570865124 2.0523000317 -1.0786393919
H 1.6680871724 0.4122195317 -0.8538149119
H 0.4116701924 2.1125031617 1.4170756981
H 2.8594036624 0.2380452617 1.2892622781
H 2.2323607924 1.1980446417 2.7574773881
