16
Molecule 1806 / 7211 from QM7b dataset
C -2.2998328385 -1.3155566225 -0.2640284408
O -0.9656560385 -1.1488723625 0.2158543992
C -0.4039565085 0.0913605275 0.0322839292
C -0.9799281885 1.1549760375 -0.5529446708
C 0.9849685215 0.0809149075 0.5793676992
C 2.1840119215 0.0644922175 -0.3162054708
N 1.7937135915 1.2968985675 0.3960949192
H -2.5785101285 -2.3498360125 -0.0319784308
H -2.3518128485 -1.1516110725 -1.3530926608
H -2.9907293185 -0.6201316125 0.2409015192
H -1.9829152485 1.1348506375 -0.9713969708
H -0.4021399785 2.0748298675 -0.6102070308
H 1.0822346715 -0.4749278825 1.5179008692
H 2.0273222415 0.1019275075 -1.3962546808
H 3.0635588915 -0.4924880025 0.0171016292
H 2.3906674415 1.4329530975 1.2166878492
