12
Molecule 1670 / 7211 from QM7b dataset
C -1.6127918189 -0.0021611741 1.2172214680
C -0.1849201589 -0.0070031241 0.7386395080
O 0.0888888811 -1.1561272341 -0.0964777420
C 0.9660161111 -0.6637243741 -1.0595265220
C 0.9755468111 0.6734868559 -1.0445073820
O 0.1053924011 1.1566132159 -0.0705029120
H -1.7915203789 0.8847870659 1.8385420880
H -1.8030751989 -0.8975820741 1.8226989080
H -2.2984274689 0.0099344159 0.3604830680
H 0.5445241411 -0.0216266041 1.5792826480
H 1.4555696211 -1.3845807441 -1.7037801220
H 1.4755733611 1.4015909859 -1.6723437920
