18
Molecule 1591 / 7211 from QM7b dataset
C -2.2617661469 -0.9655087103 0.1604370119
C -0.7345685969 -0.9389591503 0.0944687019
C -0.1738303469 -1.9516833403 -0.9113105981
N -0.2747014069 0.4203333497 -0.2065981781
C 0.9012455431 0.9285793697 0.2862047719
C 1.2672539031 2.3207055797 -0.2037848881
O 1.6144679831 0.3095804897 1.0784440319
H -2.6387755969 -0.2636864903 0.9170962319
H -2.6158006569 -1.9733711503 0.4174980419
H -2.7065308569 -0.6995502603 -0.8127279081
H -0.3156066069 -1.1654050203 1.0867331519
H -0.5498600069 -1.7479869503 -1.9260503881
H -0.4707789769 -2.9746541203 -0.6380070881
H 0.9228782531 -1.9048067003 -0.9272519681
H -0.7724000969 0.9468087497 -0.9196307281
H 2.2096529231 2.2566998297 -0.7642647681
H 1.4511189931 2.9606791997 0.6689078019
H 0.5032624831 2.7874930597 -0.8397573881
