15
Molecule 1491 / 7211 from QM7b dataset
C -2.5649021603 -1.6678991333 -1.0054916188
N -1.1136045203 -1.5383148433 -0.9747227688
N -0.6641074703 -0.2644359933 -0.7972056688
C 0.5009512097 -0.0838253133 -0.2784655988
C 1.0548144797 1.2984393567 -0.1630378788
C 1.5929552697 1.6668018667 1.2024172312
O 1.6408977797 0.9244170767 2.1651968212
H -2.8178529803 -2.6917869633 -1.3105590088
H -2.9617019203 -0.9706887733 -1.7539178488
H -3.0465520803 -1.4524497933 -0.0345958688
H -0.6452662703 -2.2423380933 -0.3894298088
H 1.1169804597 -0.9226538233 0.0873380712
H 0.2904851597 2.0397437167 -0.4512801588
H 1.8957079897 1.4660353767 -0.8676751488
H 1.9820885497 2.7169569367 1.2695114612
