15
Molecule 3688 / 7211 from QM7b dataset
C -1.7471382644 -1.8918869533 0.4947207420
N -0.5086038144 -1.1544584033 0.3084021120
C -0.5781745644 0.0774995967 -0.0330139380
C -1.8397747944 0.8751095167 -0.2673735180
N 0.6144002856 0.8071662567 -0.2165486780
C 1.9036685156 0.3247368667 -0.0598345380
O 2.8922172756 1.0235350567 -0.2334906180
H -1.5121203444 -2.8968606433 0.8678918820
H -2.3050289044 -2.0115178733 -0.4517430880
H -2.4289352344 -1.4136789333 1.2209711220
H -2.4807277844 0.3633464967 -0.9991244080
H -1.6397978844 1.8892312867 -0.6338172480
H -2.4157444944 0.9542617767 0.6665374920
H 0.5498349056 1.7871018067 -0.4860749380
H 1.9227208856 -0.7418735033 0.2333176020
