12
Molecule 2242 / 7211 from QM7b dataset
C -1.9292356269 -0.2714111503 0.6768304357
C -0.3947480269 -0.2951791903 0.7428160157
C 0.2790577831 -1.4572852403 0.0981406557
N 1.1241885631 -1.1502579303 -0.8219046643
O 1.1499408931 0.2865568497 -0.9403463443
C 0.2503018531 0.8485117197 -0.0377643043
O 0.0721227631 2.0381256097 0.0359724057
H -2.2945309469 0.6926039297 1.0529445857
H -2.3569046269 -1.0745607503 1.2904365757
H -2.2793277469 -0.3954019003 -0.3562106843
H -0.0743922469 -0.2024563803 1.7955317457
H 0.1270704831 -2.5136558903 0.3254851157
