17
Molecule 4553 / 7211 from QM7b dataset
C -2.1290056429 -0.3273077974 0.0299705974
C -0.6488446129 -0.0902253274 -0.0571673226
C 0.2809857171 -0.7454018474 -1.1102401526
C 1.2690355471 -0.5276977974 0.0504957274
C 1.4191109971 1.0054714926 0.1284755374
C -0.0974174829 1.3547213926 0.0442496274
O 0.1584257771 -0.7775602374 0.9907703074
H -2.5303055629 0.0897327526 0.9653246674
H -2.3568584429 -1.4012320174 -0.0000677426
H -2.6414360329 0.1639163726 -0.8101543326
H 0.4524559671 -0.2300329474 -2.0674996026
H 0.0423795071 -1.8063767874 -1.2525658926
H 2.1469240871 -1.1616734174 0.2238856874
H 1.8743366771 1.3125072026 1.0788401474
H 2.0137220171 1.4176993226 -0.6996107126
H -0.3605015529 1.9684891926 -0.8295010226
H -0.4713100129 1.8500915326 0.9504822574
