12
Molecule 2018 / 7211 from QM7b dataset
C -1.8285478915 -0.5240639393 -0.1683603369
C -0.3329439015 -0.6176936493 -0.0850131069
C 0.3442187385 -1.7790547393 -0.1110269469
C 0.3766214285 0.6927286807 0.1383953331
O 1.6557030885 0.7925975807 -0.3420238769
O -0.1327346415 1.6310833207 0.7146751931
H -2.1350870515 0.0805364807 -1.0352717969
H -2.2207016115 -0.0111442593 0.7209000831
H -2.2844692215 -1.5179161593 -0.2487672569
H -0.1769564615 -2.7318296093 -0.2185036969
H 1.4266654385 -1.8328749893 0.0236019531
H 1.8507110885 -0.0077167893 -0.8671394669
