12
Molecule 3516 / 7211 from QM7b dataset
N -2.7691181222 -0.4305129726 0.2153163584
C -1.4188755022 -0.3860921026 0.0671696584
C -0.6346347422 0.7234106674 0.1799762884
C 0.8095959978 0.6870885974 0.0368029384
O 1.5285795978 1.6919088674 0.1310026984
C 1.4333917778 -0.6111608126 -0.2346800616
C 2.0123866078 -1.6571283826 -0.4583280916
H -3.2828885522 -1.2715566526 -0.0135865116
H -3.3050038422 0.4244683074 0.3203079384
H -0.9487323622 -1.3514449626 -0.1393938016
H -1.0612966622 1.7082204774 0.3845314784
H 2.5419266578 -2.5680751026 -0.6527395916
