15
Molecule 3565 / 7211 from QM7b dataset
C -3.0579695688 1.3918579505 -0.4851254792
C -1.7690090588 0.6969985905 -0.1570425892
C -0.6314568188 0.9353558305 -0.8292584992
O 0.6041364712 0.3733192405 -0.6333602492
C 0.7038945812 -0.5851723995 0.4127821008
C 2.1361331512 -1.0806191495 0.4577891008
O 2.5229153012 -1.9106448795 1.2551251308
H -3.8437672688 0.6717197105 -0.7635136992
H -2.9355307288 2.0942755005 -1.3216022692
H -3.4396912088 1.9604039505 0.3778075808
H -1.7876888288 -0.0238595795 0.6633914008
H -0.5817453488 1.6506991305 -1.6537439892
H 0.0277368412 -1.4439112495 0.2404851508
H 0.4421835712 -0.1429071295 1.3927652708
H 2.8125350812 -0.6183401595 -0.3045762992
