12
Molecule 1612 / 7211 from QM7b dataset
N -1.9783874025 -1.5788107805 0.0790113617
C -0.6072025925 -1.6425150905 0.0294904017
O 0.0235539775 -2.6957230405 -0.0445525883
C 0.0529718475 -0.3456311205 0.0440456117
C 0.6828968475 0.6966809795 0.0743821117
C 1.4276366975 1.9508206395 0.0704009217
O 0.6186718175 3.1083137795 -0.1711333583
H -2.4474064125 -0.7080922305 0.3048279017
H -2.4839908925 -2.4538400105 0.1810705917
H 2.2545765875 1.8748881495 -0.6605000683
H 1.8870158175 2.1074316695 1.0587181917
H 0.1628935575 2.9744295295 -1.0216228583
