16
Molecule 2268 / 7211 from QM7b dataset
C -0.4075403267 -2.7383670071 -0.7297105463
N -0.8714267367 -1.5009417171 -0.0946680563
C 0.1422781733 -0.4807671271 -0.0501382063
C 0.2525900333 0.4457615329 -1.2281868563
C -0.3383349667 0.9593672029 0.0831171137
C 0.3842132533 1.8917361429 0.8967644037
C 0.9994885133 2.6813821029 1.5869500137
H -1.2105325467 -3.4871720871 -0.6950782063
H 0.4990093933 -3.1747806271 -0.2632965563
H -0.1781841867 -2.5385717371 -1.7867132163
H -1.1906952167 -1.7017692571 0.8563542237
H 1.0865948733 -0.7037582571 0.4693236437
H -0.4557317767 0.2979187529 -2.0435018363
H 1.2395395933 0.8140517929 -1.5051303663
H -1.4256288967 1.0673896129 0.0843060437
H 1.5394478433 3.3786067429 2.1936371337
