17
Molecule 4971 / 7211 from QM7b dataset
C -1.8492229140 0.4518400515 0.7338898000
C -0.3109561340 0.4444247915 0.6834812300
C 0.2801748660 1.6107836115 -0.0676501100
C 1.0921461660 1.1445099715 -1.0461890100
C 1.0954007660 -0.3197842985 -1.0155440200
C 0.2848887660 -0.7621396885 -0.0190615500
C -0.0061564140 -2.1726724185 0.3751076000
H -2.2196515140 1.3508543815 1.2461448400
H -2.2330479040 -0.4257234385 1.2739332100
H -2.2644741140 0.4409358615 -0.2839390700
H 0.0698548860 0.4623771615 1.7249391700
H 0.0620437060 2.6518477315 0.1661129000
H 1.6625638660 1.7485146015 -1.7521749500
H 1.6690969060 -0.9529597785 -1.6940280500
H 0.5266534460 -2.8830617485 -0.2711577500
H -1.0835551740 -2.3998895385 0.3089520600
H 0.2928652860 -2.3746673585 1.4170140000
