14
Molecule 1669 / 7211 from QM7b dataset
C -1.9180005302 -0.4098160162 0.4422127147
C -0.4142341802 -0.3312330262 0.5359431247
N 0.4379175598 -1.0293804762 -0.4577829853
C 0.3841036798 0.4557788038 -0.4432554853
C 1.6600338798 1.1689038238 -0.0716987653
H -2.3961380902 0.3614551438 1.0654775447
H -2.2859076902 -1.3894720262 0.7845455847
H -2.2582991602 -0.2625244362 -0.5946436553
H -0.0118307602 -0.4073298962 1.5531234647
H -0.1618559702 -1.3832035662 -1.2121263853
H -0.1990104902 0.9325215438 -1.2409606053
H 2.1841396898 0.6252484838 0.7263617647
H 1.4529424598 2.1916182638 0.2786116947
H 2.3391199998 1.2355483138 -0.9351180453
