12
Molecule 814 / 7211 from QM7b dataset
C -2.4194262724 0.1393252108 -0.4100906836
C -1.0879597524 0.1844607208 -0.1879495136
N -0.2234108224 -0.8937893392 -0.0109974236
C 1.0994633676 -0.4731118592 0.1984600264
O 2.0624774776 -1.2072368492 0.3816941964
C 1.0303281176 1.0139442008 0.1428808564
C -0.2489567624 1.3836880408 -0.0826370036
H -2.9669062124 -0.8002126492 -0.4742007736
H -2.9768416924 1.0658918108 -0.5310548936
H -0.4898043924 -1.8726614192 -0.0267714236
H 1.9075712476 1.6415655908 0.2713402164
H -0.6506552024 2.3899989508 -0.1798668236
