17
Molecule 1983 / 7211 from QM7b dataset
C -2.7858905050 -1.3803996785 0.6419943332
C -1.2602002650 -1.2821028285 0.6632962532
C -0.7550302150 0.1039072515 0.2516619332
C 0.7813857350 0.1822896715 0.1998357432
O 1.3224752650 -0.7187191485 -0.7432662268
C 1.2344653250 1.5931141815 -0.0951055668
O 1.9695454950 1.8516015415 -1.0347790468
H -3.1242996350 -2.3819928885 0.9428212632
H -3.1820252350 -1.1847538185 -0.3661562268
H -3.2469699950 -0.6524301585 1.3273435132
H -0.8241074050 -2.0314168985 -0.0144840768
H -0.8833467050 -1.5170386985 1.6737377632
H -1.1280094750 0.8650752915 0.9599504432
H -1.1478684950 0.3652603115 -0.7456507368
H 1.1700508750 -0.0529972585 1.2174863832
H 1.8812403150 -0.1639752385 -1.3323546968
H 0.8607892250 2.3903586315 0.5915723832
