13
Molecule 2433 / 7211 from QM7b dataset
O 0.1262173605 -1.9765055500 -0.3647756123
C -0.5251085795 -0.9125472600 0.3497800977
C 0.3808059805 0.2860360200 0.3690779577
C 0.4123363705 1.2174245500 -0.8183249023
C -0.2295157195 1.6653941400 0.4726299077
H -0.4299291995 -2.7698440800 -0.2843057623
H -0.7541032195 -1.2257743800 1.3863851777
H -1.4815463995 -0.6386501600 -0.1380092923
H 1.3275863605 0.1280562500 0.8913602177
H -0.2414309895 0.9773110200 -1.6580932923
H 1.3692283505 1.6567785800 -1.1001056323
H 0.2875305205 2.4082075000 1.0801465477
H -1.3181826195 1.7381149700 0.5018485677
