14
Molecule 5141 / 7211 from QM7b dataset
C -1.8183790482 -0.0550660945 -0.5507869530
C -0.3033694282 0.0220480255 -0.5560766030
C 0.4155678518 1.0796140355 0.3221772270
C 1.4229470918 -0.0430439245 0.6607643670
N 0.4026589618 -1.0381839445 0.2270522870
H -2.1714818482 -0.9444436045 -1.0945674730
H -2.2548245282 0.8307975455 -1.0372068430
H -2.1939054882 -0.1144941945 0.4808797570
H 0.0670436618 0.0912468855 -1.5994410330
H -0.1946333782 1.3635770655 1.1909706970
H 0.7975509818 1.9799122355 -0.1735391130
H 2.3162616318 0.0029303755 0.0102284470
H 1.7477070718 -0.1485021645 1.7071546270
H 0.7670703618 -1.8150487845 -0.3303133030
