14
Molecule 3799 / 7211 from QM7b dataset
C -1.7923043047 -0.7996139470 -0.0044620532
C -0.2649849947 -0.7183706170 -0.0095048232
C 0.2649740153 0.7184120130 0.0095148768
C 1.7923066753 0.7995841530 0.0044523568
H -2.1434936747 -1.8414612670 -0.0183635232
H -2.2194851447 -0.2913394670 -0.8828954532
H -2.2122178547 -0.3174786170 0.8920364568
H 0.1315719053 -1.2369782870 -0.9001448532
H 0.1387230753 -1.2629410570 0.8622239668
H -0.1315224247 1.2370322330 0.9001689768
H -0.1387374847 1.2629985130 -0.8622034232
H 2.2194625553 0.2913634230 0.8829363668
H 2.1435719353 1.8414063730 0.0182414868
H 2.2121787653 0.3173285430 -0.8920021432
