17
Molecule 5441 / 7211 from QM7b dataset
C -2.3403811824 0.2941814896 -0.8844197585
C -0.8192659724 0.2277814196 -0.8016972485
C -0.1788947124 1.3812378896 0.0006576715
N 1.1061899576 0.8148126596 0.3851848215
C 1.0777115376 -0.5630616404 0.5024893415
N 2.0312230576 -1.2322909004 1.0494366315
C -0.2507165124 -1.0200188504 -0.0975987285
H -2.7426105724 -0.5388071004 -1.4787329385
H -2.6759521124 1.2296314496 -1.3569468485
H -2.7929590924 0.2415850396 0.1180526415
H -0.3977471424 0.2654921096 -1.8204187085
H -0.8071903224 1.6368185496 0.8780455615
H -0.0520745224 2.2917558096 -0.6040730385
H 1.7806283076 1.3300039796 0.9443157915
H 1.8262291776 -2.2362357204 0.9982103715
H -0.1199198824 -1.8819911504 -0.7657560385
H -0.9110138924 -1.3366271304 0.7283653715
