17
Molecule 6690 / 7211 from QM7b dataset
C -2.3280596400 0.6516297388 -0.2453203455
C -0.8163367700 0.6224266788 -0.3862906855
C 0.0289699300 1.5839283888 0.4717765245
O 0.8765400700 0.4985682688 0.9493481645
C -0.0164425300 -0.4903995912 0.3590760945
C 0.6692622200 -1.5410111312 -0.4473931855
C 1.9865616400 -1.5849059312 -0.6740322555
H -2.7952384600 -0.1959344212 -0.7688728555
H -2.7482047200 1.5740298988 -0.6737961155
H -2.6287851500 0.6040307588 0.8125113445
H -0.5175526800 0.6616007688 -1.4440736255
H -0.5307032400 2.0501469388 1.3034523745
H 0.6127739800 2.3539428088 -0.0559816355
H -0.6350474000 -0.9681283312 1.1478330145
H 0.0079315300 -2.3130298812 -0.8576578155
H 2.6467635400 -0.8250664212 -0.2529099555
H 2.4320129400 -2.3801471912 -1.2721869255
