15
Molecule 2241 / 7211 from QM7b dataset
C -2.1306770750 1.3633688034 0.4122357986
O -0.7107344750 1.1504169534 0.2588529286
C -0.3582749550 -0.1426929266 0.0051929686
O -1.1704091750 -1.0508402866 -0.0843911414
C 1.1176995450 -0.3339672166 -0.1516317714
C 1.5460892450 -1.7495731966 -0.4154454814
C 1.9715074550 0.7001071434 -0.0600798614
H -2.2443308150 2.4355223134 0.6032890286
H -2.5191441850 0.7753493834 1.2543411886
H -2.6649052550 1.0722209934 -0.5019293814
H 1.2380602950 -2.4104577366 0.4078595486
H 2.6347405350 -1.8108018466 -0.5350011914
H 1.0617178750 -2.1420152966 -1.3211096814
H 1.6190934350 1.7121694034 0.1331072286
H 3.0458520250 0.5479438134 -0.1778809514
