13
Molecule 4082 / 7211 from QM7b dataset
C -0.0900646445 -1.9343762200 0.2849390170
C -0.9125680245 -0.6577623500 0.1239399770
O -2.1471066745 -0.7080418200 0.1720385070
C -0.2277539045 0.6149390700 -0.0852102130
C 1.1230282155 0.7646962100 -0.1378275830
N 1.7923372355 1.9326274400 -0.3900028230
H 0.5864748255 -1.8704202500 1.1502809170
H 0.5224720655 -2.1301776900 -0.6077732730
H -0.7808176545 -2.7712791200 0.4342749370
H -0.8865640445 1.4801584800 -0.2031880630
H 1.7797125555 -0.1004232500 -0.0154389530
H 1.2768722155 2.8071758200 -0.3606562030
H 2.7764929355 1.9959282300 -0.1588348430
