13
Molecule 909 / 7211 from QM7b dataset
O -2.2165596067 -0.1124824569 0.5233815408
C -1.0714401467 -0.0605476469 0.1430195008
C -0.3602476567 1.1804845631 -0.3531989192
C 1.1141709933 1.2438591331 0.0661693108
C 1.7571402533 -0.0846970069 -0.2022219792
C 1.0201735033 -1.1996970769 -0.2044945592
O -0.3394607767 -1.2442225069 0.0912746108
H -0.9405647267 2.0480563831 -0.0185989792
H -0.4205175267 1.1432180931 -1.4548270592
H 1.2006841833 1.5041871831 1.1366806508
H 1.6222550833 2.0478514431 -0.4860655092
H 2.8262965933 -0.1638460469 -0.3960730992
H 1.4012277833 -2.2022391369 -0.3940053392
