15
Molecule 6548 / 7211 from QM7b dataset
C -2.5569429811 0.1786298940 0.0482277642
C -1.0669202811 0.1148978540 0.0207087142
C -0.2649269011 -0.9662678260 -0.0346821258
C 1.1508129989 -0.5626204760 -0.0389642758
N 2.1432186889 -1.3759854960 -0.1795635558
N 1.1427846489 0.8288714840 0.1539823242
C -0.2125547211 1.3604992640 0.0639016842
H -3.0007726711 -0.8234226260 -0.0028021758
H -2.9463900111 0.7709653040 -0.7955018358
H -2.9160129411 0.6671836440 0.9684273042
H -0.5653083011 -2.0108188260 -0.0818193058
H 3.0410605589 -0.8728095660 -0.1518679258
H 1.9202705989 1.3770391640 -0.2007212158
H -0.3677947111 1.9743977340 -0.8446713258
H -0.4638845711 1.9964309940 0.9328745342
