16
Molecule 3019 / 7211 from QM7b dataset
C -1.6076980297 -0.8725854575 0.2551143550
C -0.0745615897 -0.7462589875 0.3377699750
C 0.6173976403 -1.5882452875 -0.7427744350
C 0.3184308403 0.7350015425 0.2973713850
C 0.3271148703 1.4368609925 -1.0487719650
O 0.6058668903 1.3345103225 1.3246887750
H -2.0994549697 -0.2853896175 1.0429736750
H -1.9042305197 -1.9243247875 0.3789586750
H -1.9899516097 -0.5328015075 -0.7195609150
H 0.2455942103 -1.0942906975 1.3326058250
H 0.2980163903 -1.2976184875 -1.7548865150
H 0.3638179803 -2.6501835075 -0.6105884650
H 1.7120581903 -1.4978420975 -0.6894866650
H -0.5325443997 1.1498460825 -1.6708532950
H 1.2336988103 1.1462836425 -1.6022769950
H 0.3419584103 2.5216015825 -0.8966514150
