16
Molecule 5203 / 7211 from QM7b dataset
C -1.8487883765 0.0063578294 0.4209760784
C -0.3075540465 0.0018031194 0.4720496584
N 0.1074102335 0.0599863294 1.8960119484
C 0.2613146235 1.1862814094 -0.2917468216
C 0.9806680135 0.7502452294 -1.3474073516
C 0.9802392235 -0.7251426306 -1.3633140416
C 0.2489481135 -1.1751387406 -0.3210001116
H -2.2056208065 0.0099749594 -0.6175706116
H -2.2338403865 0.8933000194 0.9421799784
H -2.2496427265 -0.8890574406 0.9206878984
H 1.1313923535 0.0567519194 1.9382566284
H -0.1964617665 -0.8006927906 2.3626940784
H 0.0751588135 2.2163964294 0.0081298384
H 1.4880431435 1.3735957494 -2.0840108916
H 1.4989895235 -1.3329060406 -2.1051431316
H 0.0511449135 -2.2137044106 -0.0546518916
