12
Molecule 81 / 7211 from QM7b dataset
O -1.2381188156 -1.4525123523 -1.0057022286
C -1.6819457556 -0.3599380123 -0.7045677386
C -0.8430272856 0.8552697877 -0.3847768586
C 0.6685564344 0.6090365777 -0.3404399586
C 1.1158039244 -0.0629094623 0.9397540914
O 2.1009397644 0.2627277977 1.5746271014
H -2.7874874656 -0.1836206523 -0.6646339086
H -1.2249706856 1.2919741277 0.5553867314
H -1.0906510156 1.6079752577 -1.1548942986
H 1.2393323344 1.5385120577 -0.4634335086
H 0.9355186244 -0.0741751223 -1.1659835186
H 0.4693667144 -0.9111425723 1.2823423114
