13
Molecule 1004 / 7211 from QM7b dataset
N -1.7699615284 -1.7419441473 -0.8093819269
C -0.6857502084 -1.5685909573 -0.1308901969
N -0.1235043684 -0.3262144773 -0.0146301569
O 1.0801498016 -0.2039428073 0.7536888631
C 1.4466295016 1.2114134927 0.7044133331
C 0.3769697816 1.8557917127 -0.1312391269
C -0.4939654884 0.9045670627 -0.5101450269
H -2.0348011084 -2.7301343573 -0.7817513269
H -0.0969917584 -2.3231796773 0.4110831631
H 2.4589608516 1.2885864727 0.2645459831
H 1.4867549516 1.5915170527 1.7427276531
H 0.3315741316 2.9111047927 -0.3772226169
H -1.3957357184 0.9516706827 -1.1136430669
