15
Molecule 3299 / 7211 from QM7b dataset
O -2.1106117437 0.1357972716 1.0162071057
C -0.9670531337 0.0438663816 0.5977164957
C -0.2667398737 -1.2881379784 0.3882327657
C 0.7518955863 -1.2621853284 -0.7629596743
C 1.5831971563 0.0145364616 -0.7149788343
O 0.7465326863 1.1727976816 -0.7982888743
C -0.1183000337 1.2874437216 0.3315264457
H -1.0276052837 -2.0724186084 0.2750956357
H 0.2621571863 -1.4903804684 1.3388028457
H 1.4097922763 -2.1439809284 -0.7140323543
H 0.2249552463 -1.2998157984 -1.7290944943
H 2.1909541063 0.0527930416 0.2133585857
H 2.2661592763 0.0798061916 -1.5733621243
H 0.4693565063 1.4885628316 1.2549667157
H -0.7811350637 2.1435345616 0.1536961457
