16
Molecule 3886 / 7211 from QM7b dataset
C -2.3097952020 0.6476338800 -0.1829769268
C -0.8330557120 0.4846514300 -0.5091873268
C 0.1267567380 1.5034860100 0.1667527332
N 0.5329773580 0.4730147600 1.1679258932
C -0.0780055720 -0.5912668700 0.3523536232
C 0.8665368880 -1.4331133900 -0.4633140368
O 2.0803675580 -1.3154677400 -0.4513883268
H -2.8939537120 -0.2200022300 -0.5240198568
H -2.7197611520 1.5413171700 -0.6771496368
H -2.4605909620 0.7582095000 0.9009326432
H -0.6864941720 0.3740843000 -1.5940415968
H -0.3551722720 2.3872901300 0.6150413532
H 0.9392864080 1.8350059400 -0.5006376468
H 1.5486081680 0.3499369100 1.2367800532
H -0.7470671120 -1.2797001100 0.9073170432
H 0.3667399980 -2.2018493700 -1.1103653868
