15
Molecule 6674 / 7211 from QM7b dataset
O -2.1551028134 0.0746455829 0.7577798785
C -1.0887899634 -0.0014862671 0.1656068785
C -0.3734664434 1.2082889329 -0.4041583515
C 1.1102839766 1.2467381329 0.0084498485
C 1.7770236166 -0.0902627971 -0.1651882415
C 1.0990763366 -1.2454209071 -0.2200407715
C -0.3963145034 -1.3392437971 -0.0706458015
H -0.9155692134 2.1153492429 -0.1077106115
H -0.4259259434 1.1199679429 -1.5044416415
H 1.1973845766 1.5716909529 1.0611781085
H 1.6372180666 2.0137067929 -0.5808011315
H 2.8676381166 -0.1043299071 -0.2396106915
H 1.6409315366 -2.1864186171 -0.3487365415
H -0.8481594134 -1.7832881571 -0.9780508715
H -0.6795733334 -2.0155226971 0.7517929885
