14
Molecule 323 / 7211 from QM7b dataset
O -1.8583992578 -0.0301305767 0.0717603543
C -0.4419026678 -0.0075570267 0.0365834243
C 0.3404359322 1.0753002033 0.8560634143
C 1.4043998422 -0.0023388567 1.1895553443
C 0.3739748822 -1.0979411567 0.8122042943
C -0.0518623378 0.0270311533 -1.3798684357
N 0.3300144522 0.0551162133 -2.4811498157
H -2.1209778778 -0.0526768667 1.0094216343
H -0.2548579578 1.3487051733 1.7402422443
H 0.6453903922 1.9867627633 0.3283354043
H 2.2444715122 0.0248814033 0.4836070543
H 1.7984091522 -0.0169063767 2.2124165143
H 0.7064881622 -1.9776259867 0.2484259243
H -0.2121043878 -1.4248748867 1.6842888543
