15
Molecule 188 / 7211 from QM7b dataset
N -2.2744541110 -0.4153167052 0.4257974595
C -0.8315655710 -0.4461624452 0.5058085895
C -0.0918319610 -1.1168142652 -0.6210267305
C -0.0523375810 0.3900400548 -0.5104205205
C 1.1557480190 1.1397314148 -0.0938037805
C 2.3835342290 0.6388071548 0.1023492995
H -2.6514443110 0.3180733748 1.0313569595
H -2.6659332610 -1.3020132152 0.7545686695
H -0.3497363710 -0.5160354252 1.4904197195
H -0.6992084010 -1.5289290852 -1.4272282605
H 0.8058885390 -1.6843286752 -0.3754742105
H -0.7138155110 0.9175479448 -1.2024252405
H 0.9960262790 2.2098835048 0.0828725095
H 2.6155201390 -0.4134285152 -0.0754116305
H 3.2025988690 1.2728355448 0.4432981195
