17
Molecule 461 / 7211 from QM7b dataset
C -3.3746877481 -1.1630456188 -0.2769661965
N -1.9186738581 -1.1546146288 -0.1630144665
C -1.4270217081 0.0897119612 0.4458344235
C 0.0267016719 0.1939571612 0.4059371035
C 1.2362637219 0.3088974312 0.3603720635
C 2.6904201619 0.4145895712 0.2980567135
N 3.1254615419 1.4281849212 -0.6849534365
H -3.6946597881 -2.0725426188 -0.8029350965
H -3.7969541781 -0.2831337788 -0.8079621265
H -3.8203297081 -1.1881482688 0.7298121035
H -1.4971246281 -1.2487057488 -1.0899736665
H -1.7666308581 0.1091460012 1.4973696635
H -1.8591995381 1.0000946612 -0.0300429165
H 3.0973636519 -0.6015296988 0.1147822235
H 3.0672584719 0.7243938112 1.2879256235
H 2.7665266419 1.1739981512 -1.6092544165
H 4.1461795519 1.4067724112 -0.7533507165
