12
Molecule 3004 / 7211 from QM7b dataset
C -1.5603079259 -1.3247197256 -0.1946903068
C -0.0565791259 -1.2290352756 -0.4961994468
C 0.4612925841 0.1965458344 -0.4423746568
O 0.9059066741 0.7926483444 -1.4172765668
C 0.3995649341 0.8487775344 0.8598004732
C 0.3529136841 1.3878544044 1.9488719132
H -1.8860567959 -2.3730742756 -0.2243998868
H -2.1458508759 -0.7650648356 -0.9375302268
H -1.7946390259 -0.9238187256 0.8010799832
H 0.1756551541 -1.6163039456 -1.4978780868
H 0.5058500741 -1.8215359256 0.2450760832
H 0.3164831741 1.8820743244 2.8994168132
