19
Molecule 1434 / 7211 from QM7b dataset
N -2.8673607207 0.1494442604 -0.7894396663
C -1.6470153607 0.2771453304 0.0235509537
C -0.5336398407 -0.6056644996 -0.5412240563
C 0.7984941093 -0.5460014096 0.2410152537
N 1.8085365993 -1.5189064196 -0.2294082163
C 1.3991684293 0.8354119904 0.1883084637
C 1.5779515393 1.6424949404 1.2380085937
H -3.5846216207 0.7901828104 -0.4423687363
H -3.2555794307 -0.7923941796 -0.6860670463
H -1.7911105507 0.0293606504 1.0968505637
H -1.3281822907 1.3305886404 -0.0119798563
H -0.3574690707 -0.3303925896 -1.5957068963
H -0.8752004907 -1.6573023996 -0.5454354263
H 0.5944601993 -0.7873795696 1.2998574637
H 2.0430165693 -1.3121811996 -1.2061428563
H 1.3921230793 -2.4548082496 -0.2384068563
H 1.6922039693 1.1821036004 -0.8119996463
H 1.3013167093 1.3303519904 2.2484799237
H 2.0110585193 2.6377875004 1.1268992937
