17
Molecule 4653 / 7211 from QM7b dataset
C -1.5147640596 0.2577255427 1.6332970629
C -0.0621616496 0.2198318827 1.1667183229
C 0.3451782004 -1.1376770973 0.5436138229
C 0.1346187604 -0.9211511873 -0.9542939871
C 1.1954715504 -0.1260662273 -1.6986464971
C -0.0153909696 0.5671888527 -1.1311070671
O 0.1604905604 1.2077254827 0.1207277829
H -1.7879764996 1.2751542927 1.9436349329
H -1.6667584196 -0.4194705673 2.4871376729
H -2.1914102796 -0.0516754073 0.8224759729
H 0.6055640004 0.5075384427 1.9941606329
H -0.2822998796 -1.9565486673 0.9234663529
H 1.3928561304 -1.3836641673 0.7752878429
H -0.4864866996 -1.6203413673 -1.5144422171
H 2.1462022304 0.0544886927 -1.1934310671
H 1.2543358404 -0.2508901073 -2.7812046471
H -0.7656618996 1.0244943927 -1.7803976871
