17
Molecule 5380 / 7211 from QM7b dataset
C -0.5079489655 -1.8371555151 -1.3293610319
C -0.9385769655 -1.3066683351 0.0468605681
C -0.6174136255 0.1556418849 0.2496177981
C -1.5814152255 1.0869458249 0.3682142981
C 0.8320920145 0.5382348849 0.3331645581
N 1.1350652045 1.8155533049 -0.1193845519
N 1.7793462245 -0.1849416151 0.8345418081
H -0.7388849655 -2.9074303651 -1.4236535419
H 0.5724656945 -1.7090666351 -1.4837788819
H -1.0336296855 -1.3037294151 -2.1344304419
H -0.4489971755 -1.9055817151 0.8342102281
H -2.0204903155 -1.4504372951 0.1849723781
H -2.6366808755 0.8089345749 0.3318266881
H -1.3455004755 2.1375190249 0.5409327581
H 0.5954493645 2.1560184849 -0.9099232219
H 2.1357618645 1.9947095449 -0.1741772019
H 1.3992031745 -1.0572104951 1.2169432981
