15
Molecule 5092 / 7211 from QM7b dataset
C -1.6648620073 -0.7635449355 0.5106945638
C -0.1249911673 -0.6058905055 0.4354676138
C 0.4317932927 -1.2652037655 -0.7391497462
C 0.8915842927 -1.8173634255 -1.7183960262
C 0.2101604727 0.9079231145 0.5386086738
C 0.4274586627 1.6765950345 -0.7401991162
O 0.2506722027 1.4294547145 1.6404523038
H -2.0391930473 -0.2894452655 1.4269201738
H -1.9309770273 -1.8279636255 0.5225839838
H -2.1506255773 -0.2999895955 -0.3588949362
H 0.3096007727 -1.0575564755 1.3425692038
H 1.2967223427 -2.3093969155 -2.5790240462
H -0.3485576173 1.4370656645 -1.4816911762
H 1.3832451227 1.3656724545 -1.1884130962
H 0.4475461327 2.7508829445 -0.5298243162
