17
Molecule 4315 / 7211 from QM7b dataset
C -1.3765117730 -1.5056958223 1.0072328853
C 0.1435413270 -1.2814882923 0.9496970953
N 0.8475494470 -2.0471464623 -0.0934427347
C 0.5065070370 0.1939859977 0.8126320853
O -0.0381981930 0.6718750777 -0.4394635747
N 0.2992057370 2.0228803377 -0.6015217147
C -0.1374784830 2.4856300877 -1.7140665247
H -1.8361811030 -0.9448996923 1.8361793353
H -1.5995889230 -2.5718807323 1.1587621953
H -1.8556361830 -1.1835065323 0.0717807353
H 0.5758930270 -1.5923585623 1.9179085753
H 0.5082116170 -1.7466867823 -1.0120407847
H 0.6078068870 -3.0380513123 -0.0104375147
H 1.6000340970 0.3152515077 0.7980958353
H 0.0792088170 0.7834200077 1.6396021253
H 0.0808490570 3.5347610277 -1.9131949847
H -0.6986466830 1.8842214977 -2.4391690247
