16
Molecule 4210 / 7211 from QM7b dataset
C -1.7544436361 0.8363019375 0.2514094228
C -1.1059287261 -0.3273082025 -0.4205951272
C -0.2871992161 -1.3116583825 0.3854589828
O 1.0885173839 -1.3169735925 -0.0348691272
C 1.6631716239 -0.0016087025 -0.1818113472
C 0.7325055139 1.1218100275 0.2652557828
N -0.5176453761 1.0370313675 -0.5113133772
H -2.6461988561 1.2912262975 -0.1849313972
H -1.6992266861 0.8779948675 1.3453738628
H -1.5122666461 -0.6920588125 -1.3686999872
H -0.3614833561 -1.0932432425 1.4669420028
H -0.6402679361 -2.3406157725 0.2315945328
H 2.5979733839 0.0264369475 0.4022817328
H 1.9134772639 0.1416258675 -1.2476698272
H 0.5617230839 1.0697112675 1.3572950428
H 1.2130149539 2.0902716775 0.0576544128
