13
Molecule 990 / 7211 from QM7b dataset
C -2.4276319362 -2.2584234104 0.0123323946
C -1.1205363962 -2.2271798904 0.3401610546
C -0.2946542762 -1.0803281104 0.2637452146
C 0.4461893338 -0.1110450204 0.2085923246
C 1.3309988438 1.0155747696 0.1489644446
C 1.3147725238 1.9581023196 -0.9976468054
O 0.7461093538 2.3444590996 0.2583342646
H -2.9997852762 -3.1811005904 0.1036600246
H -2.9457995162 -1.3685483104 -0.3466382554
H -0.6355323162 -3.1410093104 0.7006719346
H 2.2741060938 0.9062050196 0.6967581446
H 0.5969036938 1.7840872696 -1.8051736854
H 2.2464039338 2.4644891796 -1.2728440454
