16
Molecule 5789 / 7211 from QM7b dataset
C -3.3963654965 -0.9308565425 -0.3348919588
C -1.9424705865 -0.8535107625 -0.3289335188
C -0.7276801665 -0.7967774825 -0.3196898088
C 0.7296996835 -0.7068272525 -0.3099121788
C 1.2382510935 0.7241440875 -0.2123191588
C 1.4684383635 1.3776028375 1.1009091112
N 2.6137330635 0.8736855475 0.3043158712
H -3.8479860865 0.0725649475 -0.3179761288
H -3.7698130565 -1.4789266525 0.5433124512
H -3.7655446865 -1.4477405525 -1.2335241788
H 1.1391053035 -1.1716770425 -1.2237913688
H 1.1456529235 -1.2787284725 0.5361709312
H 0.9243588635 1.3762528675 -1.0339147488
H 1.2737577735 0.8167505075 2.0184998912
H 1.3076960735 2.4556936275 1.1756212512
H 3.0774041035 1.6573626275 -0.1655841188
