15
Molecule 5054 / 7211 from QM7b dataset
C -0.7705304731 -1.8497645170 -1.5526373478
O -0.5925988631 -1.3451286670 -0.2359659278
C 0.4863916469 -0.3887033670 -0.1479937878
C 0.6547374569 0.0041112130 1.3284195222
O 0.1486572169 1.3668028030 1.4791786522
C -0.0354573631 1.8344312930 0.2098451922
C 0.1822622669 0.9495650330 -0.7770002878
H -1.5361948531 -2.6335197770 -1.4924160478
H 0.1653250869 -2.2913970970 -1.9463324878
H -1.1156426631 -1.0695780870 -2.2546318278
H 1.3989319769 -0.8667689470 -0.5547490078
H 1.7105696469 0.0155001230 1.6342202222
H 0.0732528369 -0.6546572470 1.9854512322
H -0.3440309231 2.8778449630 0.1587393222
H 0.0949008569 1.1513450530 -1.8397829478
