15
Molecule 1554 / 7211 from QM7b dataset
C 1.7933404285 0.1437241387 -0.7556878159
C 1.7875626685 -0.1182960813 0.7648732741
C 0.5130467785 0.0043636887 -0.0023675159
O -0.3164262715 1.1271710487 0.2501989541
C -1.6435791615 0.7355291187 -0.1353359459
C -1.6282718415 -0.7621429213 0.1393427141
O -0.2989570215 -1.1281410913 -0.2636221559
H 2.0694232085 1.1431204487 -1.0916158859
H 2.0867082385 -0.6785420113 -1.4089441159
H 2.0738947085 -1.1139052913 1.1034871241
H 2.0635793985 0.7079688887 1.4206440241
H -2.3560632815 1.2994346887 0.4806878241
H -1.8213137715 0.9463963387 -1.2054344859
H -2.3373565915 -1.3394161113 -0.4679697159
H -1.7883988015 -0.9763642713 1.2115825841
