15
Molecule 4666 / 7211 from QM7b dataset
O -1.4123921388 0.2109834714 1.3687522407
C -0.0029256388 0.1138644414 1.1053814107
C 0.2999787312 -1.3033678786 0.5958882107
O 0.3817860112 -1.2410107586 -0.8430393293
C 0.7598521312 0.0785716414 -1.1966842993
C -0.3542402388 1.0804094114 -1.2837853493
C 0.5112704712 1.0019034614 -0.0315586093
H -1.6177478188 1.1496045714 1.5233680107
H 0.5643759912 0.3224957014 2.0307091707
H -0.4951285088 -2.0109290086 0.8678991807
H 1.2640293512 -1.6567181886 1.0064268307
H 1.6446945112 0.1445875314 -1.8347581893
H -0.2198406888 1.9516909714 -1.9262673493
H -1.3697166088 0.6894110614 -1.2115578593
H 1.1905700612 1.8217891914 0.2030287307
