13
Molecule 1319 / 7211 from QM7b dataset
N -1.9824233040 0.2185797732 0.9859359234
C -0.8434218240 0.0072996432 0.4701726734
O -0.6233190740 -1.1213313968 -0.2920495066
C 0.7867171460 -1.2621694368 -0.5503120166
C 1.3837401060 0.0830317032 -0.1867372666
C 0.7673948460 1.2841992032 -0.7923082366
N 0.3411667960 0.8236732332 0.5692655334
H -1.9567607340 1.1102633132 1.4918836634
H 1.1931841460 -2.0607136768 0.0909570834
H 0.9154976860 -1.5436664568 -1.6054821866
H 2.3950275760 0.1178747032 0.2217026034
H 1.3053343060 2.2327366732 -0.7833621666
H 0.0564835260 1.1442188932 -1.6106040666
