17
Molecule 3839 / 7211 from QM7b dataset
C -2.0221714146 0.9419339242 -0.0084488897
C -0.6701116646 0.2947130742 0.1084001503
C -0.5278526046 -1.2215190058 0.1205584603
C 0.9927742954 -1.4732647758 0.0087786703
C 1.5578018954 -0.2473180858 -0.7482150597
C 0.5913691054 0.8661597542 -0.4038238497
O 0.2751620954 0.9431808342 1.0101817703
H -1.9265519046 2.0346640542 -0.0446507997
H -2.6514916346 0.6812776742 0.8559162203
H -2.5405823946 0.6010260142 -0.9170571797
H -1.0675880946 -1.6283571258 -0.7516824497
H -0.9682359646 -1.6749739958 1.0215885603
H 1.4314842754 -1.5139559258 1.0141362603
H 1.2269052354 -2.4211599058 -0.4942082897
H 2.5949072454 -0.0153298358 -0.4635542597
H 1.5413104454 -0.4015712358 -1.8407541897
H 0.6276883554 1.8287042942 -0.9246849297
