12
Molecule 357 / 7211 from QM7b dataset
O -2.1271299720 -0.4173503208 -0.2942960852
C -0.9597135420 -0.1923925108 -0.1424458352
C 0.2884085480 -0.8178911508 0.6375225148
N 0.3995779080 0.5737245592 1.2252418248
C 0.0294265980 1.0641069092 -0.1592713552
C 1.1589931280 0.4887612792 -0.9725728852
C 1.3292256380 -0.7481125608 -0.4488851152
H 0.2246081280 -1.6728807308 1.3163190548
H -0.3971061420 0.7335953592 1.8617979148
H -0.2947940920 2.1012986892 -0.2815538052
H 1.6318905880 0.9519676592 -1.8338356252
H 1.9773537180 -1.5580821208 -0.7711355752
