16
Molecule 4009 / 7211 from QM7b dataset
C -1.9114096035 -1.5677479937 0.4567157398
C -1.5449169335 -0.6986778837 -0.7482848602
C -0.5093353735 0.3859794963 -0.4468682602
N 0.7818555565 -0.1890807237 -0.0959349302
C 1.8550286065 0.5771606563 0.3071996598
N 1.9060987665 1.8297104263 0.6001832698
H -2.6542163935 -2.3293079137 0.1817839898
H -2.3401560035 -0.9566846937 1.2651604398
H -1.0338183035 -2.0864602537 0.8678019498
H -2.4473385635 -0.2003490137 -1.1358317102
H -1.1741135735 -1.3300921037 -1.5753150302
H -0.8588718935 0.9983690863 0.4029397198
H -0.4138622635 1.0652280263 -1.3158434702
H 1.0012829165 -1.0952436237 -0.5009039302
H 2.7757416665 -0.0166115337 0.4068802698
H 0.9934719765 2.2864584563 0.4610157198
