20
Molecule 6978 / 7211 from QM7b dataset
C -2.9272591187 -0.7007471001 -0.2008346892
C -1.4162161087 -0.9381002501 -0.2162392392
C -0.6240901487 0.3549278899 -0.4873152692
C 0.8746752913 0.1699971999 -0.4782690392
C 1.6123128013 0.2292095399 -1.5982718792
C 1.5344911613 -0.0871106501 0.8616366208
N 1.2544092313 1.0107475099 1.8059344108
H -3.4794963687 -1.6338723801 -0.0182903392
H -3.2759537587 -0.2879261301 -1.1603882392
H -3.2065658387 0.0143466099 0.5880303308
H -1.1597800587 -1.6854148901 -0.9858221792
H -1.1060443687 -1.3676531801 0.7504518608
H -0.8888665887 1.0958295599 0.2854591808
H -0.9333384487 0.7679644499 -1.4609697892
H 1.1548786513 0.4101873099 -2.5736246492
H 2.6961043113 0.0927254299 -1.5743641292
H 2.6116716013 -0.2803103401 0.6929358308
H 1.1132507013 -1.0062529401 1.3042391008
H 1.7413659013 1.8566846399 1.4979177308
H 1.6284263813 0.7793995199 2.7286453908
