18
Molecule 781 / 7211 from QM7b dataset
N -1.9871012344 0.3740220555 -0.7058982089
C -0.5344108544 0.4064474355 -0.5437139789
C -0.0383728244 1.5434436855 0.3564219811
C 1.3611664056 1.0816754755 0.8468078811
C 1.4006271156 -0.4556892845 0.6266948011
C -0.0258598544 -0.8391297445 0.1980594211
O -0.1410856344 -2.0599026745 -0.5396359789
H -2.2466065244 -0.4926901145 -1.1862493989
H -2.2989435544 1.1428356255 -1.3036743589
H 0.0189968956 0.4510742655 -1.5119869389
H -0.7421912444 1.6361977155 1.1990530011
H -0.0105522944 2.5163297855 -0.1555156589
H 2.1627827756 1.5735288955 0.2776362111
H 1.5168510256 1.3485785755 1.9010533811
H 2.0968427256 -0.7119725245 -0.1900709189
H 1.7293807456 -1.0169518145 1.5112591111
H -0.6733168644 -0.9872830245 1.0791658311
H 0.5062501056 -2.0190657845 -1.2679155989
