20
Molecule 5490 / 7211 from QM7b dataset
C -0.5905903233 -2.4872660671 -0.6619345135
C -1.0273833233 -1.1804221671 0.0069450665
C 0.0621317267 -0.1122223671 0.0529146965
N 1.2675288067 -0.4045487171 0.8106596065
C 0.2775326667 0.7327420629 -1.1863338935
C -0.3803921633 1.3440900629 0.0361178465
C 0.3270780667 2.4112176929 0.8388400065
H -1.4118340633 -3.2178392471 -0.6794831035
H 0.2500147567 -2.9554123971 -0.1272133735
H -0.2721271133 -2.3130283371 -1.7010171735
H -1.3643100933 -1.3864603671 1.0394460065
H -1.9040570033 -0.7735876371 -0.5242584435
H 1.0224120067 -0.6830835371 1.7658679365
H 1.7631191767 -1.1961273871 0.3925323565
H -0.3341377733 0.5279333129 -2.0666935235
H 1.3040801467 1.0393375629 -1.3937810635
H -1.4639204033 1.4760839629 -0.0438175135
H 1.3922890967 2.1688990429 0.9473481565
H -0.1034789733 2.5032704429 1.8485153265
H 0.2389886967 3.3930203029 0.3486419165
