12
Molecule 2265 / 7211 from QM7b dataset
C -1.8811650007 -1.2549032730 -0.3556681262
C -0.3784570707 -1.0707414830 -0.2948145662
O -0.1314375207 0.3050132270 0.0740282838
N 1.2521286693 0.5181131370 0.1525542938
C 1.5209721293 1.7260539770 0.4867010438
H -2.1150900207 -2.2918863930 -0.6323667862
H -2.3305774607 -0.5884348830 -1.1046157562
H -2.3438513307 -1.0451915430 0.6185362038
H 0.0960350093 -1.2707663830 -1.2691547662
H 0.0820198193 -1.7305934430 0.4580711638
H 2.5787128893 1.9757964570 0.5694943138
H 0.7512502293 2.4817230870 0.6826191938
