20
Molecule 5257 / 7211 from QM7b dataset
C -2.9578934077 -1.1599585318 1.5906874638
C -1.4597429477 -0.8887793918 1.4468206038
C -1.1366335077 0.0204156682 0.2628551638
N 0.3070124823 0.2354746482 0.1261893838
C 0.6810898523 1.1152869682 -0.9873045762
C 2.1903765023 1.0227881582 -1.1981822562
O 2.5945013423 -0.3328863418 -1.3651963962
H -3.1634359877 -1.8125694218 2.4504318638
H -3.3607353777 -1.6547358118 0.6937865538
H -3.5230721577 -0.2269990218 1.7378391338
H -0.9094566677 -1.8353914518 1.3239301738
H -1.0784403377 -0.4249397818 2.3737886638
H -1.6980268777 0.9751771682 0.3668212338
H -1.4923050577 -0.4492832518 -0.6704547462
H 0.6660881523 0.6342078182 1.0001235138
H 0.3742935323 2.1727122682 -0.8445944562
H 0.1710192923 0.7402814382 -1.8896758562
H 2.7152565423 1.4875570582 -0.3368811562
H 2.4854646323 1.5763983082 -2.1024165162
H 2.0050732523 -0.8261643418 -0.7537113162
