11
Molecule 1856 / 7211 from QM7b dataset
O -3.1626507035 -0.7893805558 0.5213971034
C -2.1479101135 -0.5691593758 -0.1016734866
C -1.3584787435 0.7438768942 0.0163056734
C 0.0739518665 0.5404107042 -0.0387260266
C 1.2717733165 0.2966504642 -0.0860294566
C 2.6072533165 0.0506181042 -0.1385589466
C 3.8067224865 -0.1698502858 -0.1885958166
H -1.7207844135 -1.3077612858 -0.8229919766
H -1.6721978135 1.2571400742 0.9382576334
H -1.6840125935 1.3758035842 -0.8321530466
H 4.8583276765 -0.3654169558 -0.2306210766
