12
Molecule 1132 / 7211 from QM7b dataset
C -2.0510051581 -0.0295443138 -0.0110409065
N -0.5994765681 0.0180551962 -0.0023806565
C 0.2025223919 1.1215896462 0.0000277035
C 1.5119151019 0.6621805862 0.0067098835
C 1.3907343519 -0.7441434038 0.0078691835
N 0.1069016119 -1.1372535138 0.0020022635
H -2.4391120381 0.9947937462 -0.0038377565
H -2.4143679881 -0.5640532038 0.8763621235
H -2.4054416581 -0.5481103838 -0.9115543765
H -0.2124847181 2.1247437662 -0.0030935065
H 2.4168813919 1.2604420762 0.0106488835
H 2.1775495819 -1.4939228638 0.0127282035
