17
Molecule 5086 / 7211 from QM7b dataset
C -1.8446612327 -1.7043856946 0.1891593964
C -1.5370504027 -0.2110462246 0.3853329064
C -0.3368283527 0.2386361354 -0.4249802336
N -0.3506607927 0.8442789454 -1.5589826236
N 0.8922579173 -0.1740758946 0.1324120064
C 2.0944273273 0.5972310454 -0.1430590436
C 1.4874256973 0.6032701554 1.2280036964
H -2.7068143227 -2.0071059146 0.7996417164
H -0.9820877727 -2.3197397446 0.4778447364
H -2.0780137027 -1.9208355546 -0.8632807136
H -1.3431384127 -0.0158953746 1.4527137264
H -2.4064534027 0.3978901254 0.0956010564
H -1.3220012427 0.9975859154 -1.8587761236
H 1.9649931273 1.4870483754 -0.7636811236
H 2.9932624473 0.0060847354 -0.3306751036
H 1.9359245973 0.0214458454 2.0369196864
H 0.9732705973 1.5198677354 1.5329461264
