11
Molecule 313 / 7211 from QM7b dataset
C -1.4978429052 -0.4075563378 0.0931434223
C -0.0010693552 -0.4839225878 0.0760454923
C 0.7200947548 -1.6099706078 0.2388894423
C 0.7526233848 0.7754728122 -0.1363936377
O 0.2353530548 1.8710105822 -0.2984494777
H -1.8373593152 0.2800079022 0.8813743023
H -1.9489766552 -1.3935713978 0.2567644323
H -1.8709929052 0.0072370922 -0.8545232877
H 0.2525535348 -2.5825281878 0.4006356223
H 1.8120832948 -1.5782612478 0.2125550723
H 1.8670323348 0.6548915122 -0.1393186377
