17
Molecule 6910 / 7211 from QM7b dataset
C -2.3470745368 0.2499698470 -0.8928645857
C -0.8276082668 0.2259692170 -0.7602096257
C -0.2467134568 1.3741101170 0.0991416843
C 1.1778578232 0.9178768170 0.4366481043
C 1.0986412332 -0.6119673930 0.4839520643
O 1.9638167632 -1.3584622330 0.9034520343
C -0.2565885968 -1.0336840130 -0.0878395757
H -2.7108421968 -0.5764704930 -1.5207380457
H -2.6927836468 1.1911160170 -1.3462492757
H -2.8258367468 0.1572151270 0.0950662543
H -0.3826808268 0.3039050470 -1.7696184157
H -0.8412278568 1.4695011270 1.0243202043
H -0.2875067168 2.3439887670 -0.4163411057
H 1.8838312632 1.1748582270 -0.3723798557
H 1.6017500632 1.3170634070 1.3676402843
H -0.1587388868 -1.9170360630 -0.7331522757
H -0.8875837468 -1.3300908530 0.7708675643
