15
Molecule 6224 / 7211 from QM7b dataset
O -2.1992070896 0.0315179846 -0.2131810394
C -0.9914575496 0.0166498846 -0.1781000194
C 0.1404866304 1.0637329646 -0.2466469294
C 0.7695548104 0.0276570546 -1.2393278294
C 0.1161777804 -1.0502811354 -0.3089232294
C 0.8860332904 -0.8268015754 1.0106882006
C 0.9041170304 0.7453365646 1.0569970006
H -0.0448316996 2.1093849346 -0.5114825094
H 1.8680255504 0.0165023746 -1.2891847094
H 0.3269525004 0.0623221146 -2.2424607094
H -0.0929503296 -2.0739813554 -0.6347777494
H 0.3682184504 -1.2686571554 1.8731589806
H 1.8975233804 -1.2542911754 0.9634106606
H 1.9252188504 1.1514439746 1.0342962906
H 0.3960280604 1.1473698646 1.9443649006
