13
Molecule 1498 / 7211 from QM7b dataset
C -1.7215571573 0.0092944777 -0.7058300676
N -0.3395933173 0.3800965977 -0.4413246876
C 0.6650557327 -0.6678904423 -0.3271578776
C 0.3842382327 -1.5958859623 0.7738411224
N 0.1392308127 -2.3447726323 1.6333119724
C 0.0651294627 1.6873644577 -0.3077258976
O 1.2152138127 2.0508466377 -0.0972922076
H -2.3290127673 0.9214563077 -0.7531220176
H -2.1156893573 -0.6351628323 0.0940281524
H -1.8095083273 -0.5215262623 -1.6669093776
H 1.6280986927 -0.1614259623 -0.1528742076
H 0.7375782627 -1.2470944323 -1.2638008976
H -0.7878370973 2.3924171377 -0.4216586576
