17
Molecule 6509 / 7211 from QM7b dataset
C -2.0022806032 -0.0440496711 1.3083890438
C -0.5502528032 -0.0278529711 0.8209923938
C -0.2333427732 1.2414538989 0.0120515838
C 1.1196157068 1.1747306889 -0.6509309062
C 1.6128497068 -0.0124843111 -1.0605464662
C 0.8528716368 -1.2416828511 -0.8394641462
C -0.1836039032 -1.2612664711 0.0246325738
H -2.2199449132 0.8334847589 1.9349406638
H -2.2109746032 -0.9434260811 1.9063105638
H -2.7008712832 -0.0338907311 0.4574339438
H 0.1074376768 -0.0268729111 1.7172791738
H -0.3107589332 2.1267132589 0.6616880738
H -1.0045154832 1.3718912689 -0.7767287462
H 1.6570677168 2.1035673789 -0.8541424562
H 2.5681946968 -0.0678193811 -1.5867548062
H 1.1508658068 -2.1490509911 -1.3696536762
H -0.7316424832 -2.1876864411 0.2188828038
