12
Molecule 366 / 7211 from QM7b dataset
O -1.9294217297 -1.0221138454 -0.1151309478
C -0.5080202797 -0.9917359354 0.0039584622
C -0.0271687697 0.4299548946 -0.0227539278
C -0.8337634397 1.5004673946 -0.1417457778
C 1.4294684803 0.6463445446 0.0905120822
O 2.2555467203 -0.2499157354 0.2030109522
H -2.2081069597 -1.9516276554 -0.0943974678
H -0.0151986897 -1.5436636854 -0.8182113778
H -0.1648402197 -1.4597749154 0.9455846622
H -1.9141562297 1.3918915846 -0.2280300578
H -0.4098172597 2.5068620846 -0.1535037178
H 1.7400234903 1.7223638446 0.0656928922
