15
Molecule 6828 / 7211 from QM7b dataset
C 1.0201672770 1.0841870429 -0.4508872683
O -0.1773683130 1.6097683829 0.1626049817
C -1.3227888830 0.8751933029 0.0262987217
C -1.4983474930 -0.4527001471 -0.0854272383
C -0.5348061330 -1.6009925771 0.0296837617
C 0.9156580070 -1.3311303571 0.3079324217
C 1.5839527470 -0.1842419271 0.1289346617
H 1.7490174470 1.8997929329 -0.3533586583
H 0.8097881970 0.9452256829 -1.5278977183
H -2.1930053330 1.5375746429 0.0252406117
H -2.5426696830 -0.7502316171 -0.2110817383
H -0.5984325330 -2.2402660871 -0.8751822983
H -0.9127732730 -2.2610482371 0.8332312617
H 1.4754474770 -2.1902457671 0.6913080017
H 2.6485610770 -0.1608406371 0.3776903217
