16
Molecule 587 / 7211 from QM7b dataset
N -1.2928561173 -1.6377314258 0.2379048047
C -1.6676407473 -0.7748157458 -0.9060315953
C -1.1296553973 0.6488416542 -0.7402356053
C 0.4039616827 0.8017367642 -0.8231211253
C 1.2352472827 0.5837600342 0.4495767047
O 0.9685055227 -0.5142037158 1.1835495547
O 2.1238048427 1.3553313242 0.7661229947
H -1.3801024473 -2.6269244858 -0.0045964553
H -1.9251802473 -1.4741161558 1.0264685247
H -2.7607067073 -0.7422535458 -1.0591682953
H -1.2292635173 -1.2213518458 -1.8122632853
H -1.5057168573 1.0832445242 0.2019145547
H -1.5731405173 1.2557435342 -1.5452772753
H 0.6558568927 1.8162191042 -1.1561875453
H 0.7998504927 0.1146797242 -1.5920550153
H 0.1784358827 -1.0272779758 0.7973204947
