14
Molecule 5199 / 7211 from QM7b dataset
N -0.2169219917 -2.2114534561 -2.1478645099
C -0.1939414417 -1.7552838461 -1.0745390599
C -0.1446643817 -1.1536443761 0.2552168601
C 0.6138972783 0.1811018539 0.2652521501
C -0.1353169717 1.3635966839 -0.3843410699
O -0.4490065817 1.9337396939 0.9210949601
C 0.4460627983 0.9878671139 1.5698274901
H 0.3306152283 -1.8705527461 0.9441205101
H -1.1777926117 -1.0016293761 0.6088738101
H 1.6471309883 0.0336382839 -0.0749848299
H -1.0426321917 1.1208151039 -0.9600888799
H 0.5067070783 2.0367755239 -0.9766439699
H 1.3704645683 1.4770482139 1.9218129001
H -0.0402101517 0.4723370639 2.4147041201
