17
Molecule 2076 / 7211 from QM7b dataset
C -1.9225891975 -0.0194578362 0.1913379007
C -0.3979246475 -0.0036049862 0.0432282907
C 0.3880215425 1.0763448238 0.8780531107
C 1.4270719325 -0.0056873962 1.2649757207
C 0.4073849325 -1.0939309762 0.8454171907
C -0.0119630975 0.0206748138 -1.3630080093
C 0.3033776025 0.0376440338 -2.5367888893
H -2.1987640075 -0.0381444762 1.2556027207
H -2.3533547075 -0.9053102362 -0.2969916693
H -2.3691899475 0.8730829038 -0.2698397593
H -0.2168991275 1.3957418738 1.7393778407
H 0.7390518525 1.9610873738 0.3321911507
H 2.2983411425 0.0121272438 0.5962045107
H 1.7784174325 -0.0182230962 2.3050987107
H 0.7738462425 -1.9556282862 0.2734572607
H -0.1916410275 -1.4495522262 1.6966227707
H 0.5799177425 0.0529240638 -3.5710154293
