16
Molecule 5981 / 7211 from QM7b dataset
C -1.3926782087 -1.5867558483 0.9522278960
C -1.1111303887 -1.0804042483 -0.4718551040
C -0.7396994987 0.3843149417 -0.5214840040
C -1.6093115487 1.3368273117 -0.9237862840
C 0.6004364813 0.7946636117 -0.1154577740
N 1.4854582813 -0.0797210183 0.2274611460
O 2.7044794913 0.5501819717 0.5601594560
H -1.6627935087 -2.6523544283 0.9339650660
H -2.2249627587 -1.0320631983 1.4091553560
H -0.5089957587 -1.4710840883 1.5936410560
H -1.9991089487 -1.2371024683 -1.1026959940
H -0.2902056887 -1.6706587183 -0.9076736340
H -2.6173456887 1.0794968117 -1.2520979240
H -1.3336669787 2.3930206317 -0.9366697640
H 0.8483125713 1.8656834817 -0.1182918440
H 3.2690218413 -0.2102212783 0.7892956360
