16
Molecule 552 / 7211 from QM7b dataset
N -1.9440143360 0.3943270212 -0.4545500608
C -0.4833014060 0.4304528712 -0.4760402708
C 0.2146395640 1.4597996212 0.4447895792
C 1.2913547340 0.3852420712 0.7572045392
C 0.2737039640 -0.6913548688 0.3057502992
N 0.7963810140 -1.8974311588 -0.3138343108
H -2.2834571860 -0.3576563788 -1.0622358408
H -2.3211009660 1.2607273412 -0.8501579108
H -0.0414696660 0.4978669012 -1.4945567908
H -0.4148901860 1.6657026912 1.3227593392
H 0.5429212540 2.4082946312 -0.0002055008
H 2.1372445740 0.4437866412 0.0546217592
H 1.6864216240 0.3181459012 1.7789180692
H -0.3570414160 -0.9847883788 1.1610782692
H 1.2596176940 -1.6745329288 -1.1989139608
H 0.0468063940 -2.5606556288 -0.5228417108
