17
Molecule 1064 / 7211 from QM7b dataset
C -0.5806349378 -2.3610744460 -0.6834336100
O -0.9550200078 -1.1877281260 0.0411984600
C 0.1676842222 -0.4461014460 0.4496592000
C 0.7049280222 0.6626088540 -0.4762951600
N 0.1539151122 0.9617584040 -1.7799755100
C -0.0744531078 1.0175304440 0.7573701300
N 0.5362992822 1.7506826440 1.8449337400
H -1.5100923578 -2.8667450060 -0.9752585100
H 0.0186177622 -3.0434609960 -0.0529538700
H 0.0022720622 -2.1145784060 -1.5881544200
H 0.8876658622 -0.9971416060 1.0723559100
H 1.7847024022 0.8369772440 -0.4235517700
H -0.8530669778 0.7801071940 -1.7744529900
H 0.5534006522 0.3308069940 -2.4804963300
H -1.1050927578 1.3308644640 0.5542196700
H 1.5473833822 1.6030675440 1.8560192400
H 0.1777240822 1.4170598140 2.7441744200
