19
Molecule 7119 / 7211 from QM7b dataset
C -2.7338800503 -2.1549031487 1.0376785978
C -1.2962613603 -1.9384411387 0.5626601978
C -0.9595662603 -0.4589751487 0.3917346778
N 0.4181974897 -0.2887248587 -0.0704609622
N 0.8515812297 1.0119495913 -0.0754361322
C 1.7585957097 1.3560428013 -0.9210495622
C 2.3405215997 2.7325635513 -0.9115923622
H -2.9581203403 -3.2243594987 1.1529094478
H -3.4591925603 -1.7368333587 0.3231796178
H -2.9086820003 -1.6704950487 2.0103099378
H -1.1462877103 -2.4616130487 -0.3985156722
H -0.5847164303 -2.3859081487 1.2748533878
H -1.0399054403 0.0685978513 1.3543854378
H -1.6880246103 0.0147928213 -0.2979108422
H 0.6068741397 -0.7943883287 -0.9483563622
H 2.1425394497 0.6347313013 -1.6684532122
H 1.8547265897 3.3419296713 -0.1390564522
H 2.2117757097 3.2263817913 -1.8883650922
H 3.4241043397 2.7068693713 -0.7102898322
