19
Molecule 5667 / 7211 from QM7b dataset
C 0.3821896706 -2.2358612137 -0.9703278953
C -0.6205720594 -1.2090030137 -0.4591605753
N 0.0258077706 -0.0031143937 0.0850723847
C -0.7732218494 1.2293599163 0.0103737447
C -0.8076201694 1.8276693663 -1.3956833153
N 0.8105101206 -0.2925739537 1.1532925647
C 1.2330912806 0.5942051863 1.9898241547
H -0.1462002494 -3.1238503037 -1.3452907453
H 1.0573710006 -2.5454652737 -0.1629778753
H 0.9880265406 -1.8176135837 -1.7867398553
H -1.2769564294 -1.6613915437 0.3099094747
H -1.2696187794 -0.8791503137 -1.2824949253
H -0.3375037694 1.9661266563 0.6945253347
H -1.8006669894 1.0302448063 0.3754187447
H 0.2091782906 2.0586245363 -1.7415380053
H -1.3954236194 2.7570252363 -1.3957577653
H -1.2676180894 1.1468513663 -2.1254707853
H 1.8998509706 0.2324906563 2.7737456947
H 1.0021346506 1.6677047463 1.9679593847
