16
Molecule 3873 / 7211 from QM7b dataset
C -3.0323223201 -0.8257603457 0.7274538670
C -1.5669343101 -0.6095119457 0.9496875170
C -0.8433416101 0.3932036043 0.4267876270
C 0.6235071599 0.6061729943 0.6564307070
C 1.5507142799 0.3560398643 -0.5483030730
N 1.0570049099 -0.5057134457 -1.4882278130
O 2.6620812899 0.8723190043 -0.6301230930
H -3.2299974301 -1.8171824757 0.2887444570
H -3.4578863501 -0.0624427357 0.0609802370
H -3.5840680601 -0.7939146157 1.6805868070
H -1.0623729001 -1.3288170257 1.6077716670
H -1.3454826201 1.1208659843 -0.2234826230
H 0.9856509199 -0.0521133757 1.4632581970
H 0.8335926899 1.6377480043 0.9750098070
H 0.1356717299 -0.9181804757 -1.3832490530
H 1.6394681399 -0.7453862257 -2.2833799330
