15
Molecule 5814 / 7211 from QM7b dataset
C -2.0219536401 -2.1109706640 -1.4936101817
C -1.4999176001 -1.3520641340 -0.3184208417
N -0.2635007001 -0.9983108840 -0.2550645417
N 0.1849757899 -0.3869275440 0.8891034783
C 1.3712628999 0.4417559160 0.7194940983
C 1.0636265499 1.7933335360 0.0956519783
O 1.5050176799 2.8545273860 0.4975537283
H -2.8464518301 -1.5677239440 -1.9824958517
H -2.4263224401 -3.0886917040 -1.1855326417
H -1.2209148101 -2.2754436240 -2.2246835017
H -2.2045991401 -1.1111677140 0.4995918783
H -0.5454699701 0.0383083960 1.4756720783
H 2.0603021099 -0.1070404340 0.0576297183
H 1.8653559199 0.5928649660 1.6897243983
H 0.3495238399 1.7470160460 -0.7672987817
