15
Molecule 2807 / 7211 from QM7b dataset
O -0.1070559983 -1.5696288425 -2.1447504831
C -1.3204775683 -1.3826947425 -1.3979948531
C -1.2147913983 -0.0414285725 -0.6961375031
N -0.1168899883 -0.0673637425 0.2714495469
C 0.1237029017 1.2489579275 0.8584741569
C 1.2643711617 1.2285204675 1.7767161369
N 2.1814867517 1.2319326475 2.4962565869
H -0.0768395483 -2.4887871525 -2.4563388731
H -1.4467545183 -2.1807110725 -0.6455980031
H -2.2004760583 -1.3776168925 -2.0661847231
H -2.1594286383 0.1559326075 -0.1621539931
H -1.0953706583 0.7535218575 -1.4644822631
H 0.7267297717 -0.3843320625 -0.2156560331
H -0.7669977183 1.5523990475 1.4349283869
H 0.3065774317 2.0545115975 0.1131988069
