17
Molecule 3718 / 7211 from QM7b dataset
C -0.4880622426 -1.2597506375 1.8699010826
C 0.5895925174 -1.0455016575 0.8069180926
C 1.1506005174 -2.3583029175 0.2788673426
O 0.0805406574 -0.3338411575 -0.3411788974
C -0.1885302426 1.0344633925 -0.1088123774
C -0.4739431426 1.7024010725 -1.4414630474
O -0.8078974426 2.8654269025 -1.5492582174
H -0.8761430626 -0.3102011775 2.2636302826
H -0.0747550426 -1.8227927175 2.7188804626
H -1.3275869126 -1.8328249175 1.4494037426
H 1.4145806074 -0.4433051375 1.2416353426
H 0.3497514974 -2.9606253175 -0.1740617074
H 1.6007166774 -2.9384422275 1.0958757526
H 1.9183208374 -2.1719649175 -0.4835665674
H 0.6784989174 1.5519794625 0.3536859226
H -1.0589910226 1.2038358525 0.5543044526
H -0.3434826526 1.0317996225 -2.3287573274
