16
Molecule 2934 / 7211 from QM7b dataset
C -2.4059076017 -0.8042613960 -1.0888755142
C -0.9470370617 -1.1269443860 -1.3557870342
O -0.0872664117 0.0083250440 -1.0320201142
C 0.3716352683 0.0661769640 0.2444366058
O 0.1492152483 -0.7689600960 1.1035389458
C 1.1740503683 1.3340911640 0.4708560758
N 2.0217801783 1.1986707940 1.6507765558
H -3.0339494217 -1.6463888760 -1.4136534242
H -2.7193994917 0.0908476940 -1.6433450442
H -2.5825181017 -0.6415505560 -0.0174691442
H -0.7601508017 -1.3068666260 -2.4225505242
H -0.6128617717 -1.9943707460 -0.7715205442
H 0.4205798083 2.1468930540 0.5278792458
H 1.7746059083 1.5335982140 -0.4306301942
H 1.5450732683 0.5923753440 2.3246472658
H 2.1641228283 2.1054732840 2.0952750158
