17
Molecule 1974 / 7211 from QM7b dataset
C -1.7995717100 -1.2470819762 0.2973320603
N -0.3942940800 -0.9927863562 -0.0347986797
C 0.1174219700 -1.9452203662 -1.0254543097
N -0.2225257100 0.3261051038 -0.4801240097
C 0.5697542400 1.2647520138 0.1498762703
C 1.2860213300 0.8089520638 1.4045173703
O 0.6637774000 2.4000480538 -0.3145799197
H -2.1251379500 -0.5326528462 1.0632864603
H -1.8937257400 -2.2651284262 0.6991363803
H -2.4696211200 -1.1553448262 -0.5835583097
H 0.0248379300 -2.9633958862 -0.6235506297
H 1.1770252600 -1.7348906662 -1.2154535297
H -0.4338310800 -1.8973251262 -1.9882335297
H -0.7020685700 0.6416573738 -1.3328438897
H 0.5704396300 0.4729705638 2.1669037903
H 1.8693967900 1.6534081838 1.7840628603
H 1.9484492000 -0.0413244162 1.1937202303
