14
Molecule 1500 / 7211 from QM7b dataset
C -3.3149035722 -0.9899054840 -0.7844096566
C -1.8257048222 -0.9701102240 -0.7202270866
C -1.0851837022 -0.0441077740 -0.0700924066
C 0.3544694078 -0.0664986040 -0.0339577866
C 1.1127882978 0.8548892360 0.6166438934
C 2.5289164278 0.8142592760 0.6401277334
N 3.7002414578 0.8057997660 0.6764532934
H -3.7125604922 -1.9304604040 -0.3699404766
H -3.6628352622 -0.9456658840 -1.8292027666
H -3.7618908022 -0.1515620240 -0.2339313866
H -1.3002390922 -1.7763199440 -1.2456276466
H -1.5903249522 0.7703799760 0.4617324434
H 0.8589763478 -0.8792773240 -0.5653476466
H 0.6448918278 1.6811486860 1.1586362834
