19
Molecule 5439 / 7211 from QM7b dataset
C -2.4234596939 0.1496008339 -0.6464366333
C -0.9141297139 0.3212362539 -0.6783843733
C -0.3528285439 1.4526196639 0.1891115967
C 1.0682898361 0.9587387339 0.4707025167
C 0.8625749161 -0.5531138861 0.6374255867
C 2.0463483461 -1.4194845161 0.2377307167
O -0.2845458039 -0.8857519461 -0.1855102033
H -2.7236563939 -0.7250874961 -1.2394815533
H -2.9204993539 1.0358444639 -1.0676314933
H -2.7735645939 0.0039241439 0.3861380767
H -0.5901265439 0.4757199039 -1.7283987133
H -0.9308304039 1.5304850239 1.1248472367
H -0.3879201239 2.4269571939 -0.3178120133
H 1.7239163461 1.1570303139 -0.3933442533
H 1.5272045061 1.4168784539 1.3576885267
H 0.5928994161 -0.7724435161 1.6898708367
H 2.3318452661 -1.2239695661 -0.8066462333
H 1.7944569161 -2.4845901361 0.3331490767
H 2.9118705161 -1.2123157161 0.8848056767
