17
Molecule 2567 / 7211 from QM7b dataset
C -2.6979297792 -0.1822151317 1.2985718968
O -1.3661268192 -0.5923276717 1.0217420868
C -0.8913096292 -0.0591826017 -0.2096722732
C 0.5407930108 -0.5086455317 -0.4171299232
C 1.2642551808 0.1788058883 -1.5943065032
O 2.1295713608 0.9254913483 -0.6928463032
C 1.5967029908 0.1999858083 0.4566916268
H -2.9807568892 -0.6285124517 2.2600706268
H -3.4003572092 -0.5306253717 0.5175926668
H -2.7759079692 0.9189733683 1.3737663368
H -0.9430211792 1.0502786883 -0.1932946432
H -1.5276124492 -0.4083131317 -1.0503467832
H 0.5935931408 -1.6058432517 -0.4084643132
H 0.6488314208 0.8483398683 -2.2198713932
H 1.8416057008 -0.4984716417 -2.2464304032
H 2.3565605708 -0.4638303617 0.9013584568
H 1.2044378908 0.8802042883 1.2295242368
