18
Molecule 5483 / 7211 from QM7b dataset
C -3.5187631594 0.8004264665 0.3001734917
C -2.2863322394 -0.0795980235 0.5126850417
C -1.0225333194 0.5183486265 -0.1017110483
N 0.1510925906 -0.3172822335 0.1724578917
C 1.3775475506 0.1782005065 -0.4387546683
C 2.5920726106 -0.5548791035 0.0991860017
O 3.6047287606 -0.7722440235 -0.5384617983
H -4.4155260894 0.3407799565 0.7380995717
H -3.7170029394 0.9637731865 -0.7699562683
H -3.3885499794 1.7875702065 0.7690225017
H -2.4649666594 -1.0761014535 0.0712635717
H -2.1112840294 -0.2420623335 1.5879851117
H -0.8327687194 1.5125558965 0.3405052717
H -1.1850511094 0.6843527765 -1.1899032383
H -0.0339249094 -1.2664513835 -0.1648602983
H 1.5092490006 1.2334359965 -0.1303524883
H 1.4072299006 0.1672163865 -1.5470505783
H 2.4851686606 -0.8811322435 1.1662630817
