19
Molecule 6730 / 7211 from QM7b dataset
N -1.5283605935 0.1703327346 1.2627909616
C -0.0530065735 0.1590530646 1.2152820016
C 0.4291627265 -1.1877728054 0.6454756416
C 0.1024923965 -1.3332253654 -0.8493450384
N 0.5886641165 -0.2213786054 -1.6779229784
C 0.1106139065 1.0693701446 -1.1635220184
C 0.4376216065 1.3108274846 0.3187369716
H -1.8536334435 1.0505194646 1.6706787816
H -1.8592764935 -0.5731756154 1.8829390516
H 0.4014564565 0.2888442546 2.2196222216
H -0.0194097035 -2.0184976154 1.2187647616
H 1.5210655965 -1.2591574554 0.7921682816
H 0.5225236965 -2.2719576754 -1.2425204284
H -0.9905173835 -1.3865623554 -0.9797092884
H 1.6140404865 -0.2236996154 -1.6690619584
H 0.5368425465 1.8725889946 -1.7843295284
H -0.9820879035 1.0948717146 -1.3043110984
H 1.5301464565 1.4099446646 0.4430190616
H -0.0045793435 2.2640871946 0.6588989116
