19
Molecule 6817 / 7211 from QM7b dataset
C -1.2790949641 -1.8352105792 1.1790221602
C -0.8543709841 -1.3323622192 -0.2139901698
N -1.9102938241 -1.4471058892 -1.2440937998
C -0.3904982541 0.0993404508 -0.1391840298
C 0.8631772359 0.5195516008 -0.3440361898
C 1.3144285959 1.9476389908 -0.2483101498
N 2.4392451459 2.0669154108 0.6979111702
H -0.4447009341 -1.7870406392 1.8950198002
H -1.6257688341 -2.8787095592 1.1252760302
H -2.1047753141 -1.2235885292 1.5772595402
H -0.0062554341 -1.9458262792 -0.5638543998
H -2.7183017841 -0.8820454892 -0.9611670798
H -2.2466803841 -2.4142528192 -1.2724680398
H -1.1642847541 0.8364026308 0.1212205002
H 1.6473725559 -0.2062200992 -0.5901966698
H 0.4421740459 2.5911583608 -0.0138583498
H 1.6903026959 2.2692053008 -1.2357095298
H 2.1054489359 1.8854121708 1.6480932902
H 2.8009601759 3.0230888408 0.6926535902
