11
Molecule 679 / 7211 from QM7b dataset
O -2.0300677080 -0.3685519614 -0.7269256826
C -0.9465829880 -0.1541822114 -0.2791982026
C 0.1857832020 -0.8647224114 0.6031845474
O 0.1559683920 0.4079408186 1.3410371274
C 0.0392392420 1.0693879886 0.0319320274
C 1.2573976720 0.5947137986 -0.7111085726
C 1.3557469720 -0.7035593814 -0.3276409026
H 0.0332563720 -1.7561567814 1.2166038074
H -0.2603798880 2.1195574486 0.0718005274
H 1.8353446220 1.1539036986 -1.4414916726
H 2.0350688220 -1.4822419214 -0.6628176026
