13
Molecule 138 / 7211 from QM7b dataset
O -2.0639088358 -0.4371149974 -0.4692079092
C -0.9581588158 -0.1553207174 -0.1113493692
C 0.2394174242 -0.8192295974 0.7083377608
C 0.4078399342 0.6190411326 1.2842470308
C 0.0281769542 1.0987528126 -0.1490589092
C 1.0975837542 0.4276175126 -0.9862040592
C 1.2333609942 -0.8060742974 -0.4347400792
H 0.1233264542 -1.7112233374 1.3306322808
H -0.3431023058 0.8768546626 2.0460260508
H 1.4283075942 0.8750358726 1.6054714108
H -0.2983426858 2.1166591026 -0.3806159892
H 1.5195442742 0.8136992826 -1.9111992792
H 1.7922158842 -1.6628266774 -0.8040454492
