13
Molecule 2844 / 7211 from QM7b dataset
N -0.7940542394 -1.5765962688 1.1517646450
C -0.2975079294 -1.2306497488 -0.1884731650
C 0.2185202706 0.2001735112 -0.2185256150
N -0.5395845994 1.2557367812 -0.1768402050
O -1.9022264694 0.8885010812 -0.0840188050
C 1.6177738406 0.4320280612 -0.3093215950
C 2.8270885406 0.5316168912 -0.3957386550
H -1.0133966894 -2.5743389888 1.1803440550
H -1.6684172894 -1.0747691488 1.3237680750
H -1.0509376594 -1.3187397088 -0.9961127650
H 0.5384055606 -1.8985885388 -0.4326867950
H -2.3369821794 1.7594503012 -0.0896871650
H 3.8893635506 0.6459815612 -0.4655918650
