13
Molecule 3352 / 7211 from QM7b dataset
O -1.9460622584 -1.3100989423 0.6275904386
N -0.6331014284 -1.5671901223 0.0827233386
C -0.0106666184 -0.4411937323 -0.0278563914
C 1.4011131316 -0.2730477023 -0.5674988214
C 1.5906361716 1.2289190677 -0.5223113914
C 0.4765287316 1.7927472277 -0.0190182614
N -0.4803070884 0.8203581777 0.3053601186
H -2.3164213184 -2.2078406823 0.6604550086
H 1.4889237416 -0.6894613123 -1.5835411114
H 2.1288745616 -0.8127291723 0.0601619386
H 2.4884818616 1.7525727377 -0.8334955714
H 0.2579340316 2.8423638577 0.1628364886
H -1.4311036884 0.9791605577 0.6163847286
