15
Molecule 3058 / 7211 from QM7b dataset
C -0.4575383379 -1.6984626772 1.7284464910
N -0.6026425679 -1.4088274672 0.2983915010
N -0.2863752479 -0.1023080172 -0.0405095390
C -0.8437680579 1.2216320528 0.3551329510
C 0.2414320921 1.8533146028 -0.5485447290
C 0.7216978321 0.4090780728 -0.8542220090
O 1.5996363621 -0.0982738272 -1.5176138290
H -0.7741879479 -2.7364073372 1.8965362110
H -1.0508449179 -1.0385820272 2.3894513910
H 0.6025530721 -1.6145030372 2.0028798510
H -1.5476537079 -1.6270129572 -0.0310391190
H -0.7474076579 1.4442511228 1.4282579410
H -1.8833565179 1.3751995428 0.0273609810
H -0.1340744279 2.3835311628 -1.4316890490
H 0.9900647521 2.4642902328 -0.0308975290
