18
Molecule 4643 / 7211 from QM7b dataset
C -1.5403856874 0.2338260964 1.6159127561
C -0.0633570174 0.2142260864 1.2047412261
C 0.3305161126 -1.1370209936 0.5533854961
C 0.0776831326 -0.9137228536 -0.9360517739
C 1.1221194526 -0.2064915436 -1.7225099939
N -0.0406541874 0.5489759764 -1.2146805139
C 0.2272690426 1.2354334664 0.0809599561
H -1.8217737674 1.2102535364 2.0371821361
H -1.7519448674 -0.5344923336 2.3742958861
H -2.1907357374 0.0437446164 0.7483405161
H 0.5602304026 0.4231232864 2.0891648861
H -0.2720267974 -1.9678485536 0.9472023961
H 1.3872471126 -1.3784145236 0.7473335061
H -0.6474616674 -1.5505036836 -1.4497075439
H 2.0909911326 -0.0466644936 -1.2352523939
H 1.1657430426 -0.3078542036 -2.8101992639
H 1.2702617326 1.5925386064 0.1234847861
H -0.4290214874 2.1157843564 0.1522926861
