22
Molecule 2681 / 7211 from QM7b dataset
C 0.0722135211 -1.7873271527 1.0991705490
C -0.4430827589 -1.1169035727 -0.1836233110
C -1.9437153389 -1.3841019827 -0.3617647510
C -0.1084111289 0.3957192873 -0.2783550710
C -0.7098690489 1.2481068173 0.8460953290
C 1.4088584111 0.6296819373 -0.3972148910
N 1.7036667311 2.0173942373 -0.7909814210
H 1.1564931311 -1.6599844527 1.2303852490
H -0.1314835489 -2.8682472127 1.0745596090
H -0.4260009889 -1.3821097227 1.9932306690
H 0.0762791011 -1.5965546127 -1.0352174310
H -2.5289064289 -0.9816473627 0.4793563790
H -2.1446149089 -2.4647326527 -0.4122939910
H -2.3265933789 -0.9269343027 -1.2870267510
H -0.5512606589 0.7434466573 -1.2335443510
H -0.3462421389 0.9227293673 1.8328557190
H -1.8079093289 1.2006133773 0.8571829190
H -0.4112675989 2.2962633973 0.7133567990
H 1.8293005911 -0.1280193227 -1.0915701210
H 1.8858048511 0.4602378173 0.5827438190
H 1.4347614811 2.1627855173 -1.7680195510
H 2.7100107711 2.1893418473 -0.7449761410
