15
Molecule 2504 / 7211 from QM7b dataset
C -3.0438184300 -0.2868416801 -0.9960782793
N -1.8216913200 -0.0027053701 -0.7116980193
N -1.1839611300 -0.7262003901 0.2466568207
C 0.2744471200 -0.7112026601 0.1659185007
C 0.8305337000 0.6795246899 0.5279246207
C 2.2836823400 0.7280628499 0.4576549407
C 3.4961822600 0.7343933099 0.3944425407
H -3.5510417700 0.3393563199 -1.7297951793
H -3.5959699900 -1.1190583001 -0.5284244893
H -1.5885548400 -1.6493915001 0.4454487107
H 0.6365604300 -1.0008239001 -0.8363953893
H 0.6441353900 -1.4550771701 0.8855536907
H 0.4897895800 0.9488932799 1.5407724607
H 0.3931842500 1.4188239499 -0.1611766593
H 4.5653021600 0.7559985899 0.3401313007
