17
Molecule 3173 / 7211 from QM7b dataset
C -1.7966722477 0.6377150200 0.2681930233
N -1.7670259977 -0.7918919400 -0.2725675667
C -0.2751986577 -0.7627759500 0.0835087633
C 1.0663839823 -1.1292707900 -0.5253787567
C 1.9107506123 0.1343380100 -0.0036653367
N 0.9829445023 1.2086621200 0.5368392833
C -0.2787919977 0.7299893300 -0.0493233967
H -2.4861028977 1.3226926700 -0.2434094067
H -2.0290874977 0.6030900000 1.3435907633
H -1.8470245277 -0.7192050300 -1.2963988167
H -0.2568183877 -1.0297322900 1.1572687733
H 1.4999411023 -2.0799447400 -0.1857647267
H 1.0366164623 -1.1308310200 -1.6250659967
H 2.6272164223 -0.1541950600 0.7771880933
H 2.4833551923 0.5573987700 -0.8411187467
H 0.9294143323 1.0831234800 1.5533027233
H -0.2277698777 0.9702382400 -1.1295004567
