19
Molecule 7023 / 7211 from QM7b dataset
C -0.3706347771 -2.9521746428 -1.0391660764
C -0.8945442371 -1.8102057828 -0.1614240264
C 0.1375581429 -0.7326683728 0.0856977236
N 0.4393831129 0.2800065072 -0.9580273364
C -0.2582572071 0.6837768872 0.2941192136
C 0.5178648929 1.6234347972 1.1832248236
N 0.4183975729 2.9925966972 0.6552245136
H -1.1410530471 -3.7201786128 -1.1958572664
H 0.4992349329 -3.4399811928 -0.5742561564
H -0.0540683271 -2.5842603428 -2.0262875864
H -1.2269878971 -2.2135497928 0.8107885736
H -1.7865085871 -1.3546252228 -0.6258531664
H 1.0432873429 -1.0799607928 0.5984882036
H -0.2520195771 0.1902036472 -1.7119365864
H -1.3266142771 0.9136635672 0.2121462936
H 1.5551614229 1.2416694472 1.2673413836
H 0.0780144429 1.6106258472 2.1946393336
H 0.8785751529 3.0172905272 -0.2597543464
H 0.9365927329 3.6379031772 1.2554511336
