18
Molecule 4480 / 7211 from QM7b dataset
C -1.8411124129 -0.6070956794 0.1996215007
C -0.3046800329 -0.5002227094 0.1971990607
C 0.2229021971 -1.2253046194 -0.9652651793
C 0.6167175971 -1.8723428694 -1.9134978993
N 0.1619984071 0.9053941906 0.1976003907
C -0.3411614629 1.6396311506 1.3567991407
C 1.6234342471 0.9777108706 0.1649722307
H -2.2669536329 -0.2545125994 1.1470294507
H -2.1343342329 -1.6556181894 0.0661689607
H -2.2577983329 -0.0171590494 -0.6280741493
H 0.0768577871 -1.0251149894 1.1087437507
H 0.9734610871 -2.4329274494 -2.7532934693
H -1.4343003229 1.7244569806 1.3265626807
H 0.0704810971 2.6578500706 1.3328309507
H -0.0478967829 1.1756537106 2.3266701807
H 2.0032845371 0.4551159106 -0.7215399593
H 2.0973525071 0.5288340106 1.0671130107
H 1.9292566471 2.0314054006 0.1056127307
