17
Molecule 5563 / 7211 from QM7b dataset
C -1.8784297738 1.0971325744 -0.8087251281
C -0.4043731838 0.7637608644 -0.6956268181
C 0.5436455462 1.7075570544 0.0996730819
C 1.1195867962 0.4512177444 0.7944810119
N -0.0530451638 -0.3025982956 0.2777179319
N -0.0617561838 -1.5952797856 -0.1043893881
C 0.7587624062 -2.4202035256 0.4572023219
H -2.4351324538 0.2389270144 -1.2106138781
H -2.0299615238 1.9499634344 -1.4868686181
H -2.2958355138 1.3500966844 0.1765844319
H 0.0181275262 0.5264457744 -1.6899506681
H -0.0027370038 2.3635391044 0.7899539819
H 1.2472482162 2.3001952444 -0.4951631981
H 2.0643166662 0.0903245844 0.3449081019
H 1.2205620562 0.4666741744 1.8897076119
H 0.6955839262 -3.4663620056 0.1572317619
H 1.4862867962 -2.1314457156 1.2288838519
