18
Molecule 923 / 7211 from QM7b dataset
N -1.9788573108 -2.0295971289 0.4587426125
C -0.7654385408 -1.7388422689 1.2326291325
C -0.3633374908 -0.2871447389 1.0543041725
O 0.0262134992 -0.0986751889 -0.3153245575
C 0.3124031492 1.2451010811 -0.6085353075
C 1.6863318692 1.7929469711 -0.2968511075
C 1.2713551792 1.4923691811 -1.7280675075
H -2.2192298608 -3.0192567589 0.5440839425
H -1.7810708008 -1.8632956689 -0.5315708075
H 0.1071347492 -2.3729281489 0.9742559925
H -0.9821092808 -1.9003799389 2.3009206525
H 0.4780813992 -0.0312327089 1.7251096625
H -1.2203977908 0.3706981911 1.2930299825
H -0.5444428808 1.9218663511 -0.4983876975
H 2.3956652892 1.1022575611 0.1600874225
H 1.7787361592 2.8322856411 0.0205943525
H 1.0718584092 2.3214098811 -2.4069333075
H 1.7101827992 0.6085756611 -2.1906683175
