13
Molecule 2798 / 7211 from QM7b dataset
N -2.4225324342 0.1892206169 0.3288963125
C -1.0671451242 0.0929363969 0.1155145325
C -0.2732651942 -1.0009906231 -0.0018110975
C 1.1297471858 -0.5714364631 -0.1383245275
O 2.1510802458 -1.2514123031 -0.1784188675
N 1.0988153358 0.8325416769 -0.2325701575
C -0.2237573842 1.3494793369 0.0621577625
H -2.9772533742 -0.6386455831 0.1318257525
H -2.8742104742 1.0561896169 0.0523782125
H -0.5659044542 -2.0471668531 0.0116511225
H 1.9362765458 1.3467776469 0.0229825925
H -0.5848926142 2.0410396369 -0.7209750475
H -0.2701148042 1.8808360169 1.0299852025
