12
Molecule 2102 / 7211 from QM7b dataset
N -2.6152635222 0.1068940512 -0.8699720250
C -1.4490281822 0.1046576412 -0.8333686750
C 0.0192285178 0.0970130012 -0.7952108150
C 0.6162623778 -1.1686094988 -0.1060176150
O 1.1301502278 -0.7397185288 1.1880235150
C 1.1447277678 0.6283207112 1.1626146550
C 0.5821159578 1.2002576412 0.0901590550
H 0.3708470878 0.1681825612 -1.8373557950
H 1.4638106478 -1.5589400988 -0.6878648050
H -0.1190479822 -1.9626471488 0.0655721950
H 1.6066795078 1.0909607812 2.0326297350
H 0.4635149378 2.2620968012 -0.0964249050
