14
Molecule 917 / 7211 from QM7b dataset
C -1.4224724205 -1.0383227592 -0.4420384271
N -0.0809273705 -0.8289838992 0.0919366529
C 0.6799867795 -2.0336716192 0.4060934629
C 0.4959073995 0.3842734308 0.3095548729
O 1.6357135995 0.5565377808 0.7642220729
C -0.2199348205 1.6888432408 -0.0559840171
O -0.8898601805 1.8951945808 -1.0510210471
H -1.9211507505 -0.0845420892 -0.6244300271
H -2.0134015005 -1.6366484892 0.2690419629
H -1.3678815205 -1.5867815692 -1.3955580571
H 0.1083002695 -2.6664263292 1.1016273329
H 1.6298080195 -1.7385092992 0.8633894929
H 0.8788683795 -2.6096620992 -0.5113059371
H 0.0841997195 2.5048645208 0.6423151029
