17
Molecule 3052 / 7211 from QM7b dataset
C -1.7439949425 0.1253219296 -0.5228966620
C -0.2007015125 0.0749566196 -0.5613040220
C 0.3107257175 0.2323853396 -1.9971899120
C 0.3386041175 -1.1942573104 0.1449948680
N 0.4601582675 -0.7419268304 1.5481197480
N 0.7131098975 0.6325253096 1.5513692980
C 0.3551202675 1.1104902196 0.4070223280
H -2.1141586925 -0.0337557704 0.4994343180
H -2.1720489125 -0.6523981504 -1.1743159220
H -2.1118319225 1.1005753496 -0.8743711720
H 1.4094246375 0.2250800496 -2.0324570320
H -0.0382403025 1.1797655596 -2.4349213820
H -0.0600845925 -0.5825144804 -2.6378454320
H 1.3239001575 -1.4738300504 -0.2754109820
H -0.3429746425 -2.0530135804 0.0654139380
H 1.1581635575 -1.2244710804 2.1133176680
H 0.3764516775 2.1869920096 0.2309730780
