21
Molecule 6282 / 7211 from QM7b dataset
C -0.1380388535 -2.6804252510 -0.3111720934
C -0.6677860335 -1.4436531510 0.4231027666
C 0.3208874665 -0.2947474010 0.4405893866
C 0.4435101465 0.7147343190 -0.6939076234
C -0.4219207235 0.6744434890 -1.9347928734
C -0.1180266035 1.1390709890 0.6469244066
C 0.6455698165 2.0719292690 1.5598715466
H -0.8629225235 -3.5070153910 -0.2818449234
H 0.7970399765 -3.0400994410 0.1451578666
H 0.0754697965 -2.4541241310 -1.3663127834
H -0.9170224535 -1.7131806010 1.4643797566
H -1.6160922535 -1.1189455010 -0.0347558534
H 1.2752189565 -0.5516697610 0.9157117366
H 1.4680176965 1.0529433790 -0.8827829034
H -1.4448963835 0.3390028090 -1.7132671834
H -0.0074435035 -0.0031470210 -2.6976731334
H -0.4991563635 1.6751911790 -2.3874990934
H -1.2050865135 1.2808824490 0.6545627566
H 1.7275155465 1.8780704190 1.5028623366
H 0.3413806665 1.9475346590 2.6110342566
H 0.4828060665 3.1264433790 1.2867340666
