23
Molecule 3320 / 7211 from QM7b dataset
C -1.7723573853 -1.0347340631 0.1937480505
C -0.2393692753 -0.9247178331 0.1593953605
C 0.3029620347 -1.7776067431 -0.9990124495
C 0.2920492247 0.5513104269 0.1648160905
C -0.1505727853 1.3321438369 -1.0869643395
C -0.2278630053 1.2860348769 1.4169981505
C 1.8328498247 0.5487528069 0.2282962205
H -2.2127660753 -0.5323368831 1.0655196205
H -2.0721009353 -2.0924308631 0.2396363605
H -2.2302718753 -0.6085248731 -0.7124981695
H 0.1399779247 -1.3726961531 1.0984164205
H -0.0304927553 -1.3943466331 -1.9760185595
H -0.0702109053 -2.8091054831 -0.9127059695
H 1.4001272847 -1.8270015031 -1.0097997595
H 0.2272617947 0.8721804169 -2.0119704695
H 0.2404639047 2.3606378869 -1.0485648995
H -1.2458978353 1.4005669869 -1.1614310695
H 0.0195000347 0.7315952969 2.3364431505
H -1.3171284153 1.4311088269 1.3900301305
H 0.2339047847 2.2825570169 1.4931983805
H 2.1961895447 -0.0477237531 1.0804560405
H 2.2105762347 1.5752494269 0.3536337605
H 2.2846754947 0.1431704369 -0.6880074695
