12
Molecule 1627 / 7211 from QM7b dataset
O -1.4743926417 -1.7358933992 0.7504608181
C -0.9950737717 -1.5220559492 -0.3460501619
C 0.2629421183 -0.7216826492 -0.5851305719
C 0.0378392083 0.7122666308 -1.1724082719
C 0.6091133683 1.2064752408 0.1835052281
O 0.7727239383 2.2845245308 0.7093818481
N 0.8657587283 -0.0953241692 0.5925290081
H -1.4633920417 -1.9279533592 -1.2801023919
H 0.9621016883 -1.3367636792 -1.1807784119
H -1.0101609017 0.9963114708 -1.3296437919
H 0.6370993683 0.9655019208 -2.0541400019
H 0.9384648783 -0.4688958592 1.5387228781
