19
Molecule 1762 / 7211 from QM7b dataset
C -1.4560552592 -2.2211286548 -1.1754646740
C -0.8582848392 -1.7250248048 0.1509407460
C -0.5803252792 -0.2468558948 0.1492461160
C 0.6243639308 0.3492387152 0.2678653260
C 1.9538299408 -0.3218192348 0.4444904860
O 0.8219019608 1.7167380252 0.2488803060
C -0.3254123392 2.5462850152 0.0912652960
H -1.6985443992 -3.2932348948 -1.1267907240
H -0.7527849992 -2.0638350048 -2.0061815340
H -2.3821974392 -1.6784391348 -1.4182764440
H 0.0527822808 -2.2978147448 0.3785867060
H -1.5690073692 -1.9571709348 0.9644528560
H -1.4631921592 0.3839351052 0.0202091660
H 1.8688525108 -1.4127332048 0.4402845160
H 2.4129729608 -0.0094493648 1.3945487860
H 2.6386019408 -0.0193874548 -0.3619168540
H 0.0459076408 3.5776091352 0.1021231260
H -1.0413458192 2.4035785152 0.9184076460
H -0.8359577592 2.3488669352 -0.8665494740
