12
Molecule 2251 / 7211 from QM7b dataset
O -1.9846411884 -0.2065378321 0.6467467404
C -0.8325051984 -0.0781391821 0.3085260604
C 0.0256736116 1.1825655279 0.2953320604
C 1.2049296616 0.8119409079 -0.6042987296
C 1.2805158416 -0.7089416821 -0.4167654796
O -0.0774307784 -1.1410574521 -0.1389371896
H 0.3386545416 1.3795645079 1.3334778004
H -0.5693794784 2.0396963679 -0.0390895096
H 0.9758454016 1.0523713379 -1.6526597196
H 2.1458791616 1.3090857479 -0.3368635796
H 1.6223322016 -1.2531837521 -1.3058930796
H 1.9115604116 -0.9913253621 0.4417882104
