11
Molecule 3596 / 7211 from QM7b dataset
C -2.1421316990 -0.0272013975 -0.0097815377
C -0.6516232090 0.0198719625 -0.0027787977
C 0.1877272310 1.0948760425 -0.0013367477
O 1.4902644910 0.6372815225 0.0052943923
C 1.3527046710 -0.7218640375 0.0075954523
N 0.1242347710 -1.1451179675 0.0030678123
H -2.5701346290 0.9829302925 -0.0021370177
H -2.5163557790 -0.5716847475 0.8690491023
H -2.5092300090 -0.5548845175 -0.9018892877
H 0.0541777010 2.1701757525 -0.0041642877
H 2.2697214310 -1.3030586075 0.0131214523
