19
Molecule 1217 / 7211 from QM7b dataset
C -2.2107882366 -0.9542847294 0.3441097539
N -0.7566680066 -0.8562262394 0.1848771339
C -0.3124828866 -1.7212984094 -0.9153502961
N -0.4616789666 0.5200435306 -0.1101839561
C 0.7519568134 0.8992148206 0.1163557239
C 1.8492381234 0.0438674406 0.6895300739
C 1.0794083734 2.3320434406 -0.1995119661
H -2.5298998466 -0.2797923794 1.1476817639
H -2.4647681166 -1.9846499094 0.6288977439
H -2.7582194066 -0.6856597594 -0.5812567661
H -0.6236081966 -2.7521582594 -0.6967316361
H 0.7811183334 -1.7069796994 -1.0028425461
H -0.7514218266 -1.4154730394 -1.8873521161
H 2.5186910334 -0.3306053394 -0.1017143361
H 1.4184472534 -0.8176892494 1.2166542039
H 2.4723357634 0.6348360506 1.3761532039
H 0.1943676234 2.8469234306 -0.5911137761
H 1.8891055234 2.3931973106 -0.9443544361
H 1.4382875534 2.8540744306 0.7023267139
