17
Molecule 3732 / 7211 from QM7b dataset
C 1.9443061057 0.0314603626 -0.5953458575
C 1.6552950757 -0.2440468474 0.8777142925
C 0.5375163857 0.0411178926 -0.1007261875
C -0.3563473143 1.2794355226 0.0089434525
C -1.7883277543 0.6835875626 0.0373918025
C -1.5345620643 -0.8269383374 0.1654941325
O -0.2833712143 -1.0492352674 -0.5034642575
H 2.3985426157 0.9848305826 -0.8692991375
H 2.2433155357 -0.8182346274 -1.2099104475
H 1.7655093257 -1.2751700474 1.2151916825
H 1.9184999657 0.5219565326 1.6097056825
H -0.1275252143 1.8562815826 0.9156840625
H -0.2212711043 1.9436681726 -0.8567596275
H -2.3985681543 1.0737878026 0.8634202125
H -2.3131725343 0.8991479226 -0.9035676475
H -2.2895031243 -1.4540626874 -0.3268169175
H -1.4561402043 -1.1260200274 1.2292363825
