17
Molecule 2014 / 7211 from QM7b dataset
C -3.0820564481 -1.0354180829 0.3400295539
C -1.6007897981 -1.1663262129 0.2490604639
N -0.8591417381 -0.1600781929 -0.0552009661
N 0.5049477119 -0.5111680729 -0.1030285961
C 1.3146890319 0.4999093371 -0.1490319061
C 0.9245703419 1.9515037071 -0.1181986761
C 2.7799262819 0.1812486571 -0.2243429561
H -3.4308906981 -1.2941059029 1.3525879439
H -3.5729349781 -1.7427582629 -0.3473895761
H -3.4003248281 -0.0141088829 0.0988752239
H -1.1395369281 -2.1478699429 0.4497320639
H -0.1558204981 2.0709653771 -0.2452620661
H 1.4653428819 2.5074361771 -0.8984285661
H 1.2190671719 2.3956269671 0.8462527039
H 2.9370712319 -0.9033514429 -0.2204408461
H 3.3191237119 0.6304212271 0.6250089039
H 3.2202246619 0.6109641171 -1.1384277261
