16
Molecule 1267 / 7211 from QM7b dataset
C -1.8134689064 -0.0140127705 -0.1238279922
C -0.2957360464 0.0016092795 -0.2745738422
C 0.1292322936 0.0278193795 -1.7421981322
C 0.4634772536 1.0323010595 0.6021698978
O 1.2796766736 -0.0073699705 1.2128997678
C 0.4814388036 -1.0419711805 0.5706669978
H -2.1112030964 -0.0321560505 0.9347732278
H -2.2489017764 -0.8986609105 -0.6141826522
H -2.2647083664 0.8767194495 -0.5881997322
H 1.2248967036 0.0382063295 -1.8374638222
H -0.2653106064 0.9219890895 -2.2496125422
H -0.2509139764 -0.8563562805 -2.2773345422
H -0.1637125964 1.5473176495 1.3520444678
H 1.0794432536 1.7738499095 0.0662697478
H 1.1099632836 -1.7562031505 0.0126966378
H -0.1366265964 -1.5902208805 1.3043894978
