15
Molecule 3179 / 7211 from QM7b dataset
C -1.1713579109 -1.5573287650 2.5196832350
C -0.9937470109 -0.9352785650 1.3489840350
C -0.0136720209 0.1783917950 1.1137122150
C 1.0044768391 -0.1132953550 0.0106402350
O 0.3529169391 -0.3089681550 -1.2832230750
C 0.1903650391 0.8021619550 -2.0385671750
O 0.5268055091 1.9310095750 -1.7502016950
H -1.9018261209 -2.3593466450 2.6346151850
H -0.5946476909 -1.2805756950 3.4066010850
H -1.5926608409 -1.2406120050 0.4843096550
H 0.5492262991 0.3856357950 2.0383487950
H -0.5452066209 1.1081733150 0.8496184250
H 1.5317074191 -1.0582360450 0.1942933950
H 1.7229959091 0.7116447450 -0.0812283850
H -0.3037575509 0.5090787850 -2.9858752650
