15
Molecule 5497 / 7211 from QM7b dataset
N -0.7064730115 -2.1788792975 -2.1349893997
C -0.5317023015 -1.7638270275 -1.0586889997
C -0.2973149015 -1.2101554075 0.2701845303
C 0.4835012885 0.1131569825 0.2237349603
C -0.2200547615 1.3830813525 -0.3154147097
C 0.3897653785 2.1059626125 0.9094969103
N 0.6040650385 0.7742398725 1.5478609703
H 0.2568459385 -1.9505866875 0.8690241103
H -1.2619085715 -1.0423552275 0.7736109503
H 1.4507960385 -0.0528391675 -0.2869544097
H -1.3140070615 1.3052266525 -0.2570694297
H 0.0705931985 1.7317479725 -1.3119741197
H 1.3234016385 2.6361435225 0.6510558803
H -0.2608972815 2.7820106825 1.4833520203
H 1.5068636985 0.6538171525 2.0129778503
