17
Molecule 2603 / 7211 from QM7b dataset
C -2.4078163182 -0.9574082054 0.0099667634
N -1.0161386682 -0.6417336954 -0.3094473066
C -0.5344706182 0.5548291446 0.3821838634
C 0.9792288118 0.7394566046 0.1885160334
C 1.8070733518 -0.3122904254 0.9208890534
O 1.3061059918 0.7765039646 -1.2171193966
H -2.7423125982 -1.8075483254 -0.6010081066
H -3.1133335882 -0.1148200054 -0.1507414966
H -2.4828672582 -1.2572054754 1.0666463834
H -0.9467730782 -0.4618288954 -1.3147699966
H -0.7425570982 0.4388259346 1.4595916034
H -1.0562349482 1.4781665146 0.0502359734
H 1.2465221618 1.7422036946 0.5617886034
H 1.5132612018 -1.3225889254 0.5978055034
H 1.6474408118 -0.2496167454 2.0073844734
H 2.8769745318 -0.1633648454 0.7212960634
H 1.3999112418 -0.1496414854 -1.5044769666
