18
Molecule 5603 / 7211 from QM7b dataset
C -0.7275955644 -2.8632239155 -0.4086469079
C -1.0223053844 -1.4319332355 0.0262817421
N 0.2005965756 -0.6214800155 0.0124024521
C 0.5093137156 0.0354752745 -1.2545945079
C -0.0050038844 0.8372966645 -0.0898597879
C 0.8735488556 1.7096194645 0.7137259721
C 0.5118867656 2.9034058945 1.2020488421
H -1.6389340544 -3.4761212655 -0.3646214579
H 0.0301657556 -3.3170890855 0.2446766121
H -0.3486323544 -2.8923364655 -1.4409023379
H -1.4106754944 -1.4200164955 1.0575467121
H -1.8086423244 -0.9916560455 -0.6250100279
H -0.1840541044 -0.1017798655 -2.0930273279
H 1.5670813256 0.0839510945 -1.5245704679
H -1.0446928544 1.1767279445 -0.1881128479
H 1.8800353356 1.3200370545 0.8981564321
H -0.4895296744 3.3086301345 1.0361151421
H 1.2046353956 3.5161722245 1.7792002921
