12
Molecule 820 / 7211 from QM7b dataset
C -2.9109851604 -0.6745544759 -0.0000165708
C -1.4565195804 -0.6344470159 -0.0000525208
C -0.2428940904 -0.5938363259 -0.0000415208
C 1.2215627296 -0.5607254359 -0.0000749008
C 1.7867622096 0.7912791341 0.0000429892
C 2.2722500596 1.9022436141 0.0001365992
H -3.3320838404 0.3417096541 0.0113009292
H -3.2946016804 -1.2063145059 0.8833270592
H -3.2952372904 -1.1868242859 -0.8945266008
H 1.6033963896 -1.1072771259 -0.8806627708
H 1.6034526896 -1.1074583959 0.8803762692
H 2.6940167296 2.8864076941 0.0002206592
