19
Molecule 4980 / 7211 from QM7b dataset
C -2.7996606269 -1.6237439692 -1.0315880401
C -1.8342802369 -1.0626514292 -0.0323672301
C -0.8477825269 -0.2141431892 -0.3549448901
O -0.0299686469 0.3625932808 0.5808251599
C 1.2236295231 0.8796226808 0.0665974699
C 1.7378280031 1.8715329108 1.0988020399
C 2.2017135631 -0.2596352692 -0.2062502501
H -2.7887866269 -2.7260873692 -1.0300504901
H -2.5642113169 -1.2872392192 -2.0521446601
H -3.8365316169 -1.3190312292 -0.8118083101
H -1.9510144469 -1.3459367492 1.0177460799
H -0.6736164069 0.1035000408 -1.3926729601
H 1.0057112331 1.4134407308 -0.8795927501
H 1.9246693731 1.3639835508 2.0562658299
H 1.0050136531 2.6716399408 1.2672556699
H 2.6791080531 2.3232988408 0.7569971599
H 2.4271442131 -0.7986622192 0.7256428899
H 3.1423209631 0.1311811608 -0.6206625801
H 1.7812559131 -0.9767241292 -0.9250717501
