16
Molecule 5332 / 7211 from QM7b dataset
C -2.3116433595 -0.6583787125 0.7726179397
C -0.8009310595 -0.6336977525 0.7228542997
C -0.0590011995 -1.2309996225 -0.4504301303
C -0.0776546395 0.2742229075 -0.2445892903
C 1.1894739105 0.9787576575 0.1671142397
O 2.0553419605 1.2715393575 -0.9387322303
H -2.7046820695 0.1444515375 1.4147175697
H -2.6817558995 -1.6169535525 1.1672140697
H -2.7414015895 -0.5234769725 -0.2311490603
H -0.3091592795 -0.7609141125 1.6924215997
H -0.6504292995 -1.6436434825 -1.2695392403
H 0.8728084905 -1.7644930425 -0.2484761203
H -0.7105906195 0.8425318875 -0.9325766803
H 1.7165760505 0.3721454875 0.9305497897
H 0.9631978705 1.9557681575 0.6214964397
H 2.1612387505 0.4428423675 -1.4402028803
