13
Molecule 2795 / 7211 from QM7b dataset
C -2.3143299359 -0.1177723298 0.1829174214
C -1.0039513359 -0.0421955098 -0.0688349886
C -0.1966223259 1.2106514302 -0.2610145286
N 1.0475248641 1.0604253202 0.5041289514
N 1.7861350841 -0.0648009998 0.1539202614
C 1.1059957141 -1.0943315398 -0.1906095886
O -0.2722495659 -1.2109872198 -0.2384336686
H -2.8975326659 0.7937766802 0.2918931114
H -2.8151844359 -1.0796501098 0.2776651614
H -0.7538335259 2.0817395602 0.1054727014
H 0.0066977941 1.3432395302 -1.3444263686
H 1.6571589541 1.8741365602 0.4311543514
H 1.5985180741 -2.0328270098 -0.4353839886
