13
Molecule 2430 / 7211 from QM7b dataset
C 0.6069658387 -2.6554122734 -0.4763997694
C 0.0771907387 -1.6615667334 -0.0258587994
C -0.5790517613 -0.4712258134 0.5073510006
N 0.2988463587 0.7095587466 0.4629359506
C 0.2800279387 1.4407152966 -0.8099736794
C -0.4175685313 1.9893442866 0.3900338706
H 1.0803187687 -3.5330589334 -0.8666104494
H -0.8529619713 -0.6453179534 1.5614098006
H -1.5281051813 -0.3068215134 -0.0493720294
H -0.3487325513 1.0468478666 -1.6152023594
H 1.2411208187 1.8497658766 -1.1269354694
H 0.0237829087 2.8062433366 0.9644366806
H -1.5127326413 1.9643015166 0.3808064306
