19
Molecule 5662 / 7211 from QM7b dataset
C -0.8569403550 -1.9298845891 -1.7164097537
N -0.7628783050 -1.3697950791 -0.3678553437
C 0.0786936250 -0.1849903391 -0.3088683037
C -0.5324396550 1.1609824109 -0.7663178937
N -0.0083068250 1.8469443409 0.4676075863
C 0.2654725650 0.4916225109 1.0705990563
C 1.5757690350 0.3297284109 1.8134806063
H -1.4461911150 -2.8565962391 -1.6913790637
H 0.1258797250 -2.1500690491 -2.1853979237
H -1.3853575950 -1.2201062191 -2.3709096837
H -0.3808535450 -2.0792069391 0.2635201163
H 1.0711770450 -0.3326308691 -0.7951838537
H -1.6339148950 1.1362671909 -0.7485634137
H -0.1911187850 1.5842910509 -1.7214967237
H 0.8939021150 2.2799142909 0.2407375463
H -0.5834985750 0.2316744409 1.7282470863
H 2.4336520750 0.5302910709 1.1522532463
H 1.6831882750 -0.6917513591 2.2090436663
H 1.6280998950 1.0231273709 2.6659610363
