15
Molecule 3176 / 7211 from QM7b dataset
C -2.0655760617 -1.7887480275 -0.2260681206
C -0.7234801617 -1.6832255475 -0.1719580806
C 0.0069078083 -0.4384032675 -0.0385410206
C 1.3451688283 -0.2820798375 0.0223563594
C 1.6972545483 1.1621480725 0.1606342794
O 0.4420932683 1.8647351525 0.1774582694
C -0.6383976917 0.9231403925 0.0569440594
H -2.5509699617 -2.7592841675 -0.3268982006
H -2.7173387117 -0.9146307075 -0.1716407306
H -0.1154573817 -2.5916328575 -0.2306304206
H 2.0850160583 -1.0814315675 -0.0210036106
H 2.2542924983 1.3751053325 1.0945316994
H 2.3170736683 1.5298109725 -0.6810712206
H -1.2386272317 1.1610485025 -0.8418279506
H -1.3019987017 1.0061425625 0.9386694194
