12
Molecule 4452 / 7211 from QM7b dataset
C -2.6315008216 0.1040202568 -0.8627786376
C -1.4185591316 0.1011555868 -0.8308216476
C 0.0407732484 0.0989110568 -0.7763847576
C 0.6771683284 -1.1557500132 -0.1311954676
O 1.2019646784 -0.7126428032 1.1628586924
N 1.1765945984 0.6832930568 1.2144776424
C 0.5804724884 1.1538650568 0.1808923924
H -3.7020533516 0.1058618168 -0.8924872176
H 0.4358603984 0.2599222968 -1.7928351576
H 1.5227364784 -1.5298109932 -0.7269536076
H -0.0441550016 -1.9595991032 0.0557619324
H 0.4456071884 2.2285053468 0.0740297224
