16
Molecule 2402 / 7211 from QM7b dataset
C -1.6056465383 -1.8408877816 -0.9059293838
N -1.5141685983 -1.3787825516 0.4826704462
C -1.0868653583 0.0019160284 0.5974956162
C 0.3750273117 0.2683040184 0.2235186062
O 1.2506076817 -0.5768478316 0.1881149262
O 0.5820579217 1.5901477584 -0.0234590938
C 1.9559429717 1.9510530984 -0.3075492738
H -1.9068642983 -2.8972387616 -0.9127458838
H -0.6663603383 -1.7452440916 -1.4844607238
H -2.3916273283 -1.2696995716 -1.4236079238
H -0.8440673983 -1.9674929116 0.9842626562
H -1.2064521983 0.3428023984 1.6407977062
H -1.7367199983 0.6489007384 -0.0112627638
H 1.9457854917 3.0336911284 -0.4667460638
H 2.3097413317 1.4292299584 -1.2059354138
H 2.6036697817 1.6878173784 0.5385452362
