15
Molecule 1245 / 7211 from QM7b dataset
C -1.6416150028 0.1903389959 -1.3175441428
C -0.5136167928 0.0436453559 -0.3371140428
C -0.1917726128 -1.2591053241 0.4703442172
C 1.1907756572 -0.5510829941 0.4238463372
O 0.8469230472 -0.0935179441 -0.9409417528
C 0.9204128772 0.7147439959 1.2590704072
C -0.2460379128 1.1244659159 0.7380065472
H -2.6041140128 0.2184791859 -0.7867066828
H -1.6554229628 -0.6510656641 -2.0226457528
H -1.5352549228 1.1233548959 -1.8889144628
H -0.2293624428 -2.1584351441 -0.1603935228
H -0.6767229228 -1.4048954641 1.4455502972
H 2.1515163572 -1.0723646641 0.4989926272
H 1.5381328772 1.1331825459 2.0496943072
H -0.8730336228 1.9818521859 0.9723012772
