18
Molecule 2325 / 7211 from QM7b dataset
C -2.1971161842 -0.3261939082 -0.0126274814
N -0.9871782142 -0.1870219782 -0.8230635614
C 0.1800318258 0.3123505718 -0.1246208014
C 0.7058351158 -0.4814704382 1.0613321086
O 1.1126224258 -1.8159458582 0.7159927186
C 1.1857494258 1.0287224818 -0.9929073014
C 0.3048522258 1.8197514618 -0.0513741514
H -2.1234770742 -1.0236667782 0.8472777686
H -3.0208931642 -0.6698053482 -0.6536827614
H -2.4762482642 0.6598498418 0.3879246686
H -0.7574685042 -1.0643308582 -1.2957824414
H -0.0471873842 -0.5057156082 1.8710262686
H 1.6034002558 0.0082580718 1.4671825186
H 0.3069539558 -2.3452445182 0.5872781586
H 0.9562687158 1.0890742618 -2.0564912514
H 2.2419452958 0.9145020818 -0.7464561514
H 0.7578698658 2.2584852318 0.8392582586
H -0.5080100542 2.3963533218 -0.4928460914
