17
Molecule 5173 / 7211 from QM7b dataset
C -0.3113621535 -2.0840311816 1.1419248833
O -0.5133396935 -1.3291541816 -0.0616117267
N -0.3717203035 0.0664769484 0.2441559333
C -1.6833283935 0.6997112984 0.1001356733
C 0.7522762565 0.6286328584 -0.4186790567
C 0.8656018565 2.1282385384 -0.2913479567
N 1.6733490965 -0.0371900716 -1.0144226767
H -0.4298999735 -3.1344604316 0.8450460433
H -1.0648860235 -1.8299922016 1.9051960133
H 0.6974452665 -1.9208269016 1.5512599733
H -2.3829281135 0.2220571784 0.7975293433
H -2.0786635935 0.6103771684 -0.9265523867
H -1.6028293535 1.7587091184 0.3694916933
H 0.6714510265 2.4687610384 0.7353616333
H 0.1581594165 2.6401500784 -0.9607158967
H 1.8819792965 2.4103132684 -0.5843764167
H 1.4063626565 -1.0321720816 -1.0396802467
