18
Molecule 2687 / 7211 from QM7b dataset
C -0.9460438944 -2.7958375903 -0.7763487600
N -1.1465622944 -1.5392279203 -0.0517233400
C 0.0449392856 -0.7325372403 0.0176555100
C 0.3257730756 0.2251962597 -1.1312535000
C -0.1151247444 0.7396285297 0.2235692100
O 0.8147691356 1.3648587097 1.0701142700
C 0.9889169356 2.7417278297 0.7401331400
H -1.8761434144 -3.3804861603 -0.7574085500
H -0.1267568744 -3.4269707903 -0.3751538600
H -0.7099947044 -2.5719983103 -1.8272022100
H -1.4766142944 -1.7359004503 0.8963279200
H 0.9461792456 -1.1642198503 0.4804535800
H -0.3978990144 0.2604544397 -1.9462302200
H 1.3707425856 0.3703509797 -1.4067184000
H -1.1418282344 1.1195843497 0.2991221400
H 1.7333092456 3.1445023497 1.4382995900
H 0.0446942256 3.3058141697 0.8531722600
H 1.3513302656 2.8655283097 -0.2960466300
