17
Molecule 2823 / 7211 from QM7b dataset
N -0.5488573811 -2.5683007707 -0.1755478913
C -0.9311795811 -1.4662278707 0.3852621187
N -0.3000978611 -0.2818075207 0.1568489787
C -0.6431615311 0.9870095393 0.8028326287
C 0.1245637989 2.0162030593 -0.0368386613
C 1.3884677789 1.2453151993 -0.4528381013
C 0.8731818089 -0.1764913707 -0.7186332613
H -1.1618306511 -3.3326522307 0.1234897687
H -1.7828764311 -1.3635246907 1.0810973687
H -0.3012087011 1.0094763593 1.8555155287
H -1.7308338111 1.1555636993 0.7947635887
H -0.4654614811 2.2861013493 -0.9265153213
H 0.3396556689 2.9365228093 0.5221998587
H 1.8893868089 1.6797259393 -1.3279170413
H 2.1119762089 1.2351036893 0.3774668087
H 0.5726357289 -0.3243408207 -1.7706634013
H 1.6000097089 -0.9660694007 -0.4772531113
