12
Molecule 518 / 7211 from QM7b dataset
C -2.2245199786 -0.2005093170 0.0052481075
C -0.7245666986 -0.2444470670 0.0133054675
N -0.1656129686 -1.4917414970 0.0959540275
C 0.0275332614 0.9013984430 -0.0130748325
C 1.4375853014 0.8486092630 -0.0279543625
N 2.6072817414 0.7434427330 -0.0467288225
H -2.5872939786 0.8322110030 -0.0272749225
H -2.6308786286 -0.6870884670 0.9045842775
H -2.6247044586 -0.7336824070 -0.8713767425
H -0.7256871586 -2.2963617970 -0.1599139425
H 0.8390471314 -1.5818294070 -0.0373910125
H -0.4583556286 1.8745344930 -0.0183503725
