20
Molecule 6960 / 7211 from QM7b dataset
C -1.1350245598 -2.4660183064 -0.2205977073
N -1.3382931998 -1.2382618564 0.5410241627
C -0.7055268098 -0.0337882164 -0.0098602573
C -1.2070710698 1.1862215936 0.7624556527
C 0.8490414702 -0.0826497964 -0.0420414573
C 1.4754761202 1.0294467136 -0.8275758373
C 2.3515147302 1.9247887036 -0.3545348373
H -1.6768382098 -3.2875022364 0.2691424027
H -0.0800759798 -2.7863997064 -0.3465836073
H -1.5662931498 -2.3414286764 -1.2263882373
H -1.0348376298 -1.3694928664 1.5100351127
H -1.0588393098 0.0438825136 -1.0557899373
H -0.9129920398 1.1179706736 1.8228339627
H -2.3022831098 1.2431070336 0.7163254427
H -0.7786179298 2.1137858936 0.3600364927
H 1.1529655902 -1.0433041264 -0.4934175473
H 1.2319979602 -0.0757345364 0.9937045027
H 1.1708826902 1.0973088336 -1.8799095973
H 2.6864801702 1.8989285636 0.6858941727
H 2.7660440602 2.7087074836 -0.9901256373
