15
Molecule 3048 / 7211 from QM7b dataset
C -2.1945948892 -0.2995276703 0.0273756443
C -0.7073410792 -0.3861456203 -0.0028932257
C 0.0899745308 -1.4688989403 -0.0915620957
C 1.5371718208 -1.0694451203 -0.0934768657
N 1.4643568808 0.3719460697 0.1186224843
C 0.1450215808 0.8307158897 0.0501909443
N -0.3259462592 2.0325338797 0.0451919543
H -2.6592880592 -1.2899434203 -0.0554554557
H -2.5539758392 0.3407959397 -0.7914176357
H -2.5313979492 0.1804591897 0.9581680543
H -0.2315168092 -2.5083933203 -0.1445851057
H 2.1083069108 -1.5715690603 0.7088180443
H 2.0275618208 -1.3258425803 -1.0522263457
H 2.2213420908 0.9720485597 -0.1924906857
H 0.4287017008 2.7308938197 0.0846816543
