15
Molecule 4993 / 7211 from QM7b dataset
N -1.3458955838 -1.9732209928 -0.9286458708
C -0.3292451938 -1.7378824328 0.1114659992
C 0.0766102562 -0.2911282328 0.1592659092
C -0.7021228238 0.7920615672 -0.2201304008
N 0.0310760262 1.9379341372 0.0070687692
C 1.2656818062 1.6124693172 0.5232355092
C 1.3211982162 0.2333312372 0.6257244392
H -1.6348567438 -2.9536686128 -0.9117567008
H -0.9300321438 -1.8072609928 -1.8493995608
H 0.5857375062 -2.3552197328 0.0010062792
H -0.7809542638 -2.0302341228 1.0760790392
H -1.7070003138 0.8235736972 -0.6261298308
H -0.2850309338 2.8789224372 -0.1951576608
H 1.9958427462 2.3779611972 0.7638528492
H 2.1672974862 -0.3401746128 0.9951765592
