15
Molecule 3192 / 7211 from QM7b dataset
O -0.9979032678 0.4525929827 2.1692772807
C -1.6335895678 0.1777787827 1.1667141107
C -1.1388092278 -0.6818007073 0.0309053407
C 0.3026240422 -1.1685804073 0.1596833507
C 1.3505101022 -0.0534480573 -0.0560003593
C 1.2801626622 0.5563639627 -1.3792349493
C 1.1966453922 1.0501916927 -2.4859182593
H -2.6793682878 0.5617574527 1.0358691207
H -1.2899990078 -0.1144114973 -0.9059676393
H -1.8450799778 -1.5293846173 -0.0420997293
H 0.4796779022 -1.9716392773 -0.5704920093
H 0.4565035322 -1.5910237073 1.1637333907
H 2.3584037622 -0.4736658473 0.0931350507
H 1.2210788722 0.7231701927 0.7144913607
H 1.1367489322 1.4914218427 -3.4597831993
