17
Molecule 5607 / 7211 from QM7b dataset
C -3.2631830059 -0.8615665561 -0.0246284300
C -1.8089785659 -0.8438819461 0.0464271500
C -0.5948248059 -0.8324404061 0.1137833500
C 0.8654816141 -0.8032807961 0.1967706800
C 1.4595292141 0.5933178139 0.0646469900
C 1.1571699941 1.3237763039 -1.2130507300
C 2.2202954141 1.1101465439 1.0392994300
H -3.6732730859 0.1596280439 -0.0242614000
H -3.6964183559 -1.3938305861 0.8355941100
H -3.6141593859 -1.3625312061 -0.9394093300
H 1.2789926741 -1.4423129361 -0.6061869200
H 1.1919236441 -1.2511080561 1.1490455200
H 1.5294136241 0.7595332739 -2.0844807100
H 1.6144681341 2.3213342739 -1.2247875400
H 0.0698301041 1.4305392739 -1.3499771600
H 2.4212644341 0.5596330639 1.9603571800
H 2.6650190641 2.1026891139 0.9446156100
