15
Molecule 2236 / 7211 from QM7b dataset
C -3.1981677922 -0.4185901676 0.2246882598
C -1.7434465122 -0.3919981676 0.2193299398
C -0.5289601722 -0.3574553076 0.2211064998
C 0.9397638978 -0.3481172176 0.1999639898
C 1.4983067378 -1.1465283876 -1.0050391102
C 1.4711330478 1.0218572324 0.2208579398
C 1.9374110078 2.1417434924 0.2278439398
H -3.6106458522 0.6014058224 0.2238373298
H -3.5837088822 -0.9356509176 1.1159961298
H -3.5901364322 -0.9392556076 -0.6617405802
H 1.2922832678 -0.8463777976 1.1235772098
H 1.1730630178 -0.6862566076 -1.9464434902
H 1.1273364778 -2.1788276476 -0.9690054002
H 2.5954793678 -1.1543178676 -0.9743734602
H 2.3400877478 3.1338117624 0.2356435098
