17
Molecule 859 / 7211 from QM7b dataset
C -1.4644731537 0.4319285367 1.5455351794
N -0.3840603837 0.3674343167 0.5661994694
C 0.3069350763 -0.9268503233 0.4611431894
C -0.1156640337 -1.7047240133 -0.7854168006
O 0.1368926463 -0.9834009933 -1.9898053706
N 0.2777658163 1.5534989967 0.4381128294
C 1.3978084263 1.6406805567 -0.1982838906
H -1.9464768837 1.4119886267 1.4650973594
H -1.0979174737 0.2961410167 2.5809936094
H -2.2059448537 -0.3497588033 1.3301308094
H 0.0806557763 -1.5245522133 1.3618384194
H 1.3941022963 -0.7527748733 0.4478258894
H -1.1850929637 -1.9804399633 -0.7067074506
H 0.4646716863 -2.6376487833 -0.8559026006
H -0.3474471937 -0.1394704333 -1.9115216006
H 1.8283068063 2.6402451267 -0.2669483606
H 1.9164257163 0.8107365067 -0.6944152706
