16
Molecule 2455 / 7211 from QM7b dataset
C -2.1258264882 -0.2088071346 0.7509753750
C -0.6175772582 -0.2520761346 0.7749958450
C 0.1982417618 -0.9681375746 -0.2880747650
N -0.3348841182 -1.6516694546 -1.4437022850
C 0.1877014418 0.5515580754 -0.2577610650
C 1.3503367718 1.2975921454 0.1214316950
C 2.3389570318 1.9210746254 0.4572107150
H -2.5042439682 0.7084004954 1.2256310150
H -2.5521247982 -1.0674562246 1.2925047750
H -2.5236140282 -0.2372532046 -0.2741998250
H -0.1702937682 -0.2604426646 1.7724784250
H 1.1277262718 -1.4199815546 0.0666670850
H -1.1048910182 -1.1280492946 -1.8638968150
H -0.7097077982 -2.5651300446 -1.1732496550
H -0.4206071182 1.0154780554 -1.0419350050
H 3.2109454918 2.4688966054 0.7492491950
