14
Molecule 1951 / 7211 from QM7b dataset
C -2.1756490382 -0.0253058045 0.1167405536
C -0.6833092882 -0.0919775845 0.0523136436
N -0.0110775482 -1.1847063945 -0.0866665764
C 1.4128810418 -0.7987670345 -0.0393686964
C 1.4412177118 0.7421959955 -0.2047004364
N 0.0691509418 1.0817654055 0.2154306236
H -2.5888923182 -1.0327134845 0.0041836236
H -2.5798486382 0.6185870355 -0.6796054464
H -2.5019203182 0.3947319755 1.0794252736
H 1.8286496918 -1.1015806845 0.9376955336
H 1.9853816518 -1.3230226945 -0.8174183564
H 1.6229360018 1.0323329455 -1.2553482464
H 2.1904378718 1.2331831255 0.4312417836
H -0.3341002582 1.9421952755 -0.1514328864
