11
Molecule 2259 / 7211 from QM7b dataset
C -2.3333144545 -1.3143421390 -0.4147287214
O -0.9281759745 -1.3373033290 -0.0998191914
C -0.3284565845 -0.1318431490 -0.0626951614
C 0.9892762655 -0.0100867590 0.2187049286
C 1.6186199255 1.2558411510 0.2597190286
N 2.1661000155 2.2913037810 0.3022762086
H -2.6631565945 -2.3581225690 -0.4021408914
H -2.5004543245 -0.8864138790 -1.4143609814
H -2.8915822645 -0.7417634690 0.3408849686
H -0.9543957845 0.7425676310 -0.2697652614
H 1.5955457455 -0.8943821690 0.4220017886
