14
Molecule 6160 / 7211 from QM7b dataset
C 0.9843580120 1.2136752784 -0.1066339830
O -0.2611983580 1.2629047084 0.5938823270
N -1.3334342780 0.8526385484 -0.3043889130
C -1.4365344380 -0.4245485816 -0.3314052930
C -0.5574910480 -1.4182896016 0.3832652970
C 0.8992940920 -1.3142677516 -0.0244645730
C 1.5561469120 -0.1698613316 -0.2546074230
H 1.6679971820 1.8378295284 0.4928412970
H 0.8786526420 1.7055172684 -1.0945377630
H -2.2541959380 -0.7825211416 -0.9692388530
H -0.9270320280 -2.4333081716 0.1850390670
H -0.6561982880 -1.2455806716 1.4698835670
H 1.4339265520 -2.2603574016 -0.1379318930
H 2.6058355120 -0.2135349916 -0.5633157930
