13
Molecule 381 / 7211 from QM7b dataset
N -2.0131425723 -0.3880885548 -0.3494252771
N -0.6268911523 -0.3286178348 -0.1321587371
C 0.2018109577 -1.4682993848 -0.1222250071
C 1.4812803377 -1.1238151348 0.1109978729
C 1.5506860577 0.3713403652 0.2751736229
C 0.1012889277 0.8382866952 0.1028822629
O -0.3764317423 1.9654127552 0.1485327829
H -2.2246031223 0.2284696152 -1.1430251971
H -2.4694454023 0.0433563252 0.4631004029
H -0.2543830923 -2.4395532848 -0.2931278371
H 2.3236266977 -1.8056576948 0.1704452629
H 1.9223968477 0.6926849552 1.2608822929
H 2.1837003977 0.8692675252 -0.4764215971
