16
Molecule 3952 / 7211 from QM7b dataset
O -0.6573376846 -2.5916750850 -1.2497313651
C -1.2803067946 -1.9218320150 -0.1394438751
C -0.8814898446 -0.4601527750 -0.2093024951
N 0.5670167554 -0.3164254350 -0.0495249951
C 1.0289568254 1.0539446050 -0.2145385051
C 0.8162837754 1.8676601250 1.0527857649
O 0.6730033354 3.0747557750 1.0834641549
H -0.7856547346 -3.5478486350 -1.1395015251
H -0.9365491046 -2.3504923750 0.8185467749
H -2.3805854546 -2.0054342950 -0.1951916851
H -1.3927446546 0.0808856250 0.6047252849
H -1.2493851746 -0.0309180350 -1.1664609451
H 1.0214482254 -0.9298608050 -0.7284676551
H 0.5830346454 1.6068650250 -1.0670921751
H 2.1219212954 1.0415601950 -0.3751009951
H 0.8234086954 1.2478561850 1.9883502349
