19
Molecule 5281 / 7211 from QM7b dataset
C -1.2730904767 -3.0220965500 -1.5965185063
O -0.2421622967 -2.0985066000 -1.2851482163
C -0.7135921267 -1.0334951600 -0.4642501363
C 0.4381013733 -0.0800577200 -0.1833657763
C 0.0192414833 1.0943638900 0.7044369737
C 1.1717130733 2.0474338200 0.9844885237
O 0.6839904433 3.1030052400 1.8255247737
H -0.8275420567 -3.8082391800 -2.2193021063
H -2.0962128967 -2.5398219400 -2.1583365263
H -1.6975426267 -3.4825940300 -0.6835757163
H -1.1215050167 -1.4391867100 0.4853803837
H -1.5426344367 -0.4997706100 -0.9746395063
H 0.8296746433 0.2884240700 -1.1458848063
H 1.2533777133 -0.6482248300 0.2942056537
H -0.3701813567 0.7268296200 1.6683348737
H -0.7967497667 1.6637936500 0.2293850737
H 1.5623020533 2.4533479700 0.0314386237
H 1.9974679033 1.5009767100 1.4796351737
H 1.4206807133 3.7115864800 2.0015999537
