11
Molecule 1936 / 7211 from QM7b dataset
O -1.0011386598 -2.1955467826 -0.3452951932
C -0.7670104698 -1.4200885326 0.5539190568
C 0.3017947702 -0.3223184226 0.4974722168
C -0.1468429598 1.0432804274 0.9371090268
N 0.1138026702 1.9529180974 0.0589156168
N 0.7582753102 1.3202299674 -1.0796526832
C 0.8545710202 0.0542900974 -0.8395066532
H -1.3181072698 -1.4615618526 1.5251851668
H 1.1094167902 -0.6747472026 1.1715253368
H -0.6341911898 1.2884464974 1.8818328768
H 1.2923709202 -0.6307810526 -1.5649842532
