21
Molecule 5706 / 7211 from QM7b dataset
C -2.5683826813 -0.1124585675 -0.3016455858
C -1.0685344913 -0.4121785675 -0.4405319758
N -0.7017474313 -1.0610593075 -1.7157442258
C -0.2397294513 0.8671508825 -0.2490303858
C 1.2822741887 0.6764258425 -0.3006350158
C 1.8610349387 -0.2126475775 0.8044130942
N 1.5225878387 0.2983757625 2.1452003542
H -2.8055395513 0.3183882925 0.6838873742
H -3.1667290813 -1.0286158475 -0.4220937858
H -2.8934785713 0.6067981325 -1.0718546658
H -0.7907364913 -1.1215900775 0.3590352842
H -0.9945680813 -0.4576754875 -2.4925930058
H -1.2366469413 -1.9272566075 -1.8234321758
H -0.5173295513 1.3129229625 0.7183906242
H -0.5347006813 1.5928640925 -1.0298844958
H 1.7636815587 1.6696148525 -0.2466646758
H 1.5651794287 0.2391672025 -1.2705292158
H 2.9514120687 -0.3158149575 0.6286567542
H 1.4382905887 -1.2265863875 0.7175399642
H 2.0093513187 1.1848163225 2.3073937042
H 1.8659561187 -0.3459997575 2.8605346342
