20
Molecule 3858 / 7211 from QM7b dataset
C -0.0203674744 -2.0326658942 -0.7479729693
N -0.6044032944 -1.2196143042 0.3224150107
C -0.3328768244 0.2467204358 0.2659685207
C -0.9572268644 0.8251696658 -1.0091491293
C -1.0239006244 0.8590081458 1.4956527207
C 1.1611464256 0.5046473958 0.3685093307
C 1.9806619356 0.9902655558 -0.5723139693
H -0.1540318344 -3.0918803742 -0.4886080993
H 1.0565145756 -1.8514791142 -0.9336474193
H -0.5618431244 -1.8618264742 -1.6895547793
H -0.2630484944 -1.5652835642 1.2237522407
H -0.4917328744 0.4253107858 -1.9202524793
H -0.8492202544 1.9183000058 -1.0276746893
H -2.0273557744 0.5766844558 -1.0360541593
H -0.6042619344 0.4456266858 2.4265408207
H -2.0988661144 0.6307977658 1.4732469407
H -0.8850206844 1.9487567058 1.5200616407
H 1.5954247756 0.1987246458 1.3300879907
H 1.6172694156 1.3175154258 -1.5485369793
H 3.0523759456 1.0871813558 -0.3904331293
