18
Molecule 6393 / 7211 from QM7b dataset
N -1.2695199919 -0.0631098732 1.2742680667
C -0.1063703919 -0.4780116732 0.4579850467
C -0.6419988119 -1.4474389832 -0.6117787133
O -1.7517122419 -0.8843686932 -1.3021325733
C 0.5358959281 0.7474163268 -0.1579831133
C 1.5062568881 1.5751799568 0.6549860567
C 2.0040855181 0.7322918068 -0.4979716933
H -1.0319752519 0.7638449068 1.8255159067
H -1.5300976319 -0.8016272232 1.9325818567
H 0.6668370281 -1.0110553932 1.0501342467
H -0.9236632819 -2.4044168732 -0.1245282233
H 0.1424461481 -1.6652377232 -1.3521599733
H -2.2341347719 -0.3967221432 -0.5972696133
H -0.1157245319 1.2919762068 -0.8456534433
H 1.7465634881 1.2326335868 1.6638025467
H 1.4931777981 2.6590578568 0.5365987167
H 2.3255541481 1.2380193768 -1.4084324633
H 2.5741399581 -0.1663785232 -0.2548309433
