15
Molecule 1249 / 7211 from QM7b dataset
C 0.3929707168 1.2802560155 0.3000546818
C -1.0697851432 1.0328268055 -0.0790767782
C -1.3958932532 -0.4342333945 -0.0010336482
C -0.4427782532 -1.3740370345 0.0685690118
C 1.0235299968 -1.0471905145 0.0206267018
N 1.2427587868 0.3311649155 -0.4265823782
H 0.6947816668 2.3017778355 0.0250367618
H 0.4945249968 1.1874346255 1.4048403018
H -1.2639582732 1.4080588955 -1.0993438582
H -1.7311230032 1.6033387255 0.5947375518
H -2.4499539932 -0.7256345145 0.0099574418
H -0.7089857332 -2.4300653045 0.1616226518
H 1.4631761968 -1.2575084845 1.0245818218
H 1.5279168468 -1.7289365945 -0.6853977582
H 2.2260454068 0.5776491455 -0.3047980782
