13
Molecule 5025 / 7211 from QM7b dataset
O -1.8985154571 -1.8450010438 0.4608583596
C -0.7100450471 -1.6998854538 0.1717391396
C -0.0575531171 -0.4208956538 0.0144681696
C 1.2495771529 -0.2396077538 -0.2983567904
O 1.6576391529 1.0397889862 -0.3952222804
C 0.4732916129 1.8915091062 -0.1312523704
C -0.7017176071 0.9396551662 0.1769210996
H -0.0461906571 -2.5874889338 0.0088294096
H 2.0235965329 -0.9846236138 -0.4820256504
H 0.3239040529 2.4981614662 -1.0339739504
H 0.7454844729 2.5477478862 0.7051875496
H -1.5432714371 1.0702066962 -0.5183830304
H -1.0978304971 1.0730404962 1.1941615496
