16
Molecule 6595 / 7211 from QM7b dataset
N -2.2734726139 0.0324058527 -0.3771279693
C -0.8196073839 0.0230946027 -0.5490003593
C -0.0345468039 1.0708082427 0.2842432607
C 0.9866042361 -0.0301374273 0.6864863907
N 2.2546249561 0.0851575627 -0.0375044793
C -0.0585169639 -1.0965125673 0.2080833907
H -2.6850065039 -0.7671021273 -0.8681171893
H -2.6690879239 0.8664777827 -0.8216355793
H -0.4992406339 0.0578943727 -1.6099704593
H -0.6367112339 1.4042311727 1.1414489907
H 0.3793095861 1.9452124327 -0.2377990793
H 1.2259159561 -0.0743773773 1.7589734207
H 2.0859236761 0.0986176927 -1.0478512793
H 2.8320592361 -0.7411137673 0.1424434907
H 0.3257388361 -1.9454401173 -0.3767370493
H -0.6705658939 -1.4708610773 1.0427957807
