16
Molecule 3818 / 7211 from QM7b dataset
C -2.1123798451 -0.0629179846 0.6516370270
C -0.6051595351 -0.0886023946 0.9557565570
C 0.1174896349 1.2071271254 0.5578901370
C 0.5429048549 1.0861800554 -0.8967130530
O 1.4494282549 -0.0201442146 -1.0972265730
N 1.0262643549 -1.2575735646 -0.5820642530
C 0.0818370049 -1.2573119546 0.2960997770
H -2.6109646251 0.7083197654 1.2569269970
H -2.5831587851 -1.0303079346 0.8786799170
H -2.3006307751 0.1557889954 -0.4096413330
H -0.4906486451 -0.2453441046 2.0433537970
H -0.5355635551 2.0827971154 0.6953345770
H 1.0126225849 1.3567963054 1.1805430170
H 1.1023017549 1.9617936154 -1.2517641130
H -0.3356357151 0.9361371654 -1.5514247630
H -0.1857514451 -2.2686613346 0.6222315870
