17
Molecule 1021 / 7211 from QM7b dataset
C -1.0153904156 -1.3276640620 0.5780953764
N 0.1818345444 -0.7122666120 0.0052776764
C 0.9833473644 -1.7052149720 -0.7064779836
C -0.1398695656 0.4444529680 -0.8428089236
C -0.4750363956 1.6596321280 0.0235963764
O 0.5444925044 1.8733900780 0.9953855264
H -1.5868743056 -0.5896628820 1.1563181264
H -0.7216602356 -2.1362273620 1.2620671764
H -1.6853742956 -1.7549639420 -0.1997518936
H 1.2684636644 -2.5121470720 -0.0160629336
H 1.9023664244 -1.2378432120 -1.0860863336
H 0.4430198444 -2.1620775020 -1.5639739636
H -0.9679631756 0.2308867680 -1.5545666736
H 0.7586737944 0.6785140280 -1.4340196436
H -1.4628192956 1.5324174980 0.5099634664
H -0.5369599456 2.5586159580 -0.6086863436
H 0.8420397544 0.9639970080 1.2203419964
