17
Molecule 4719 / 7211 from QM7b dataset
C -1.9353221607 -2.3078946583 -0.2099264527
C -0.6277386107 -1.5967504083 -0.0473074527
C -0.3973244107 -0.2636845283 -0.0528303527
C -1.4489409307 0.7936867517 -0.2281677827
N 0.9243339193 0.2017942117 0.1140369173
C 1.3741894493 1.5065860817 0.1668373273
N 2.5815080193 1.9284196417 0.3188411873
H -1.9027267507 -3.0073107483 -1.0619547727
H -2.7806287707 -1.6283444683 -0.3768921427
H -2.1721336307 -2.9141083783 0.6804458973
H 0.2418479693 -2.2499947883 0.0942129073
H -2.4350266407 0.3401999317 -0.3647628827
H -1.2412702007 1.4235872517 -1.1068633427
H -1.5019775107 1.4571510617 0.6489369073
H 1.6354704293 -0.5216312283 0.2163600973
H 0.5788061793 2.2526462817 0.0635253773
H 3.2475653393 1.1446486817 0.4052135073
