17
Molecule 3619 / 7211 from QM7b dataset
C -1.9640209588 0.4438205607 0.6415430477
C -0.4703065988 0.5261538807 0.5137133577
C 0.3024318612 -0.7835916693 0.4938535877
C 0.5408549812 -1.2578646893 -0.9178062423
C 0.1026309612 -2.4212682693 -1.4117273623
N 0.0570808912 1.6984694207 0.3835526277
N 1.4164799612 1.8078371307 0.1554776677
H -2.4030654088 1.4466558607 0.5818835477
H -2.2564734188 -0.0197832093 1.5978608977
H -2.3896745688 -0.1804674993 -0.1613048123
H -0.2570035988 -1.5488717093 1.0533161977
H 1.2713634612 -0.6641463093 1.0162014177
H 1.0870538812 -0.5652683593 -1.5665245923
H -0.4531602288 -3.1318632593 -0.7939843123
H 0.2869543412 -2.7037695193 -2.4492849623
H 1.7314307012 2.7209408207 0.4784864377
H 1.9981074012 1.0589284407 0.5526797777
