18
Molecule 5381 / 7211 from QM7b dataset
C -1.2385581912 -1.4717059682 1.2717289666
C -0.0594056812 -0.8430042582 0.5258613266
N 0.2169947688 -1.4863435582 -0.7899891934
C -0.1499883712 0.6627491718 0.3094992066
C -1.2279459612 1.3925770718 0.6290620866
C 1.0919568288 1.3119867718 -0.2707408134
O 1.3951166688 0.8897473018 -1.6018619734
H -1.3688795612 -1.0310592782 2.2706685166
H -1.0687693912 -2.5507787082 1.3991396766
H -2.1782224212 -1.3434177782 0.7129226866
H 0.8548939488 -1.0108357382 1.1267504566
H -0.6396946512 -1.4697971782 -1.3535305334
H 0.4548317788 -2.4720163082 -0.6497796734
H -2.1247930512 0.9584023518 1.0737007266
H -1.2391823212 2.4707799718 0.4575151366
H 1.9466616288 1.1006240018 0.4089708066
H 0.9601912488 2.4041491818 -0.2989917934
H 1.2267143188 -0.0852407582 -1.5950105034
