17
Molecule 6993 / 7211 from QM7b dataset
O -2.0050963435 -0.0972351146 0.8628082075
C -0.5840488235 -0.0124365446 0.8061786575
C 0.0059921165 1.0335617954 -0.1974530125
C -0.3731337135 0.0162380954 -1.3150133725
C 0.0007926265 -1.0253608146 -0.2163402925
C 1.5105646165 -0.7854176846 -0.0426071425
C 1.5140708965 0.7840473754 -0.0218800725
H -2.3289752435 0.6922670054 1.3294051575
H -0.1479468035 -0.0239714446 1.8238884175
H -0.3424813435 2.0754935354 -0.2094870725
H 0.2243876265 0.0241507254 -2.2388901525
H -1.4449903435 0.0175808954 -1.5389998225
H -0.3586417535 -2.0614637246 -0.2435287125
H 1.8992637765 -1.2186957346 0.8908016275
H 2.0917226865 -1.1995441646 -0.8785807125
H 2.1047159165 1.2189584654 -0.8407421025
H 1.8982899165 1.1893120254 0.9263591175
