14
Molecule 304 / 7211 from QM7b dataset
C -3.1995043998 -0.2012097968 -0.0269886220
C -1.7564868798 -0.3822617568 0.3247169580
C -0.7570258898 0.2238762432 -0.3359435420
N 0.5975356402 0.0843682532 -0.0453881120
O 0.9471974502 -0.7509713868 1.0118146180
C 1.6524580602 0.6656948532 -0.6832474420
O 2.8133915502 0.4414447732 -0.3167295120
H -3.6707705898 -1.1644581268 -0.2798509820
H -3.3318854998 0.4751577732 -0.8830699920
H -3.7673149498 0.2115555732 0.8222417280
H -1.5080347498 -1.0400033468 1.1595860880
H -0.9253744198 0.8957774932 -1.1803511620
H 1.9405496202 -0.6541200268 0.9674992480
H 1.3587237602 1.3251285432 -1.5202431020
