20
Molecule 4854 / 7211 from QM7b dataset
C -2.3014377048 -0.8912326198 0.3694619279
C -0.8257715648 -1.1430443898 0.0891243379
C -0.6184545248 -2.1236982098 -1.0670547221
O -0.2368705548 0.1420993902 -0.1809497821
C 1.1910798352 0.1569577802 -0.1359966921
C 1.6475449052 1.6053829402 -0.1332692821
N 1.2198924752 2.2723756602 1.1029988779
H -2.4216463648 -0.1939429698 1.2094585179
H -2.8119668848 -1.8314998098 0.6198278179
H -2.7892024648 -0.4567543098 -0.5155779121
H -0.3471558748 -1.5553920298 1.0016646679
H -1.0642108348 -1.7229606798 -1.9898608221
H -1.0979482148 -3.0869198398 -0.8394946721
H 0.4466197352 -2.3203928598 -1.2520821921
H 1.6238218652 -0.3661892898 -1.0099004321
H 1.5434965752 -0.3444268598 0.7870190879
H 1.2793787952 2.0847658502 -1.0632066221
H 2.7487235552 1.6128421402 -0.1758807321
H 0.1971133952 2.2537376702 1.1410006879
H 1.4909281552 3.2575152402 1.0800452979
