17
Molecule 1458 / 7211 from QM7b dataset
C -2.6071694119 0.3354613120 -0.7318859459
O -1.8729442219 -0.0159203380 0.4452764841
C -0.8471740919 -0.9495739580 0.1899151141
O 0.2227707181 -0.4366928680 -0.5916625759
C 1.0152401281 0.5014667820 0.1124687241
C 2.1124931481 -0.0094311380 1.0141193441
C 2.4367903081 0.6199282520 -0.3312190559
H -3.4023261319 1.0209401120 -0.4143081459
H -3.0616418019 -0.5600674480 -1.1936506759
H -1.9662578919 0.8342869620 -1.4760537759
H -1.2308963919 -1.8090126480 -0.3889528459
H -0.4868925519 -1.2664255480 1.1826615341
H 0.4813724481 1.4075598320 0.4125205541
H 2.2279426581 -1.0914983080 1.0856950141
H 2.3375310481 0.5441375620 1.9260838341
H 2.8898511881 1.6109621220 -0.3578905059
H 2.7516249781 -0.0570844880 -1.1254053359
