14
Molecule 6445 / 7211 from QM7b dataset
C -2.4439293990 -0.5805819126 -0.7373577886
C -1.6058163690 -0.4636274026 0.2968800914
C -0.7026942690 0.7194696874 0.5346762514
C 0.7691090110 0.3395720974 0.5102010814
C 1.5698328010 0.3623173174 1.5919476114
C 1.2949962810 -0.0726589226 -0.7587023786
N 1.6938286310 -0.3861669826 -1.8123301286
H -3.0750470190 -1.4613594826 -0.8605417386
H -2.5241509790 0.2000050874 -1.4977556986
H -1.5370887690 -1.2696840326 1.0352795714
H -0.9145899390 1.1659896474 1.5192594714
H -0.8931521790 1.4897504274 -0.2290903486
H 1.1804229510 0.6807325474 2.5597315714
H 2.6178171810 0.0707894974 1.5335588614
