18
Molecule 1439 / 7211 from QM7b dataset
N -2.0032701857 0.1044295758 0.6591593172
C -0.5783184757 -0.0739080742 1.0377535072
C 0.2271832743 1.1705765958 0.6248934072
C 0.4849025943 1.1804508958 -0.8840074028
C 1.3160214043 -0.0394242342 -1.2974095928
C 0.8322131143 -1.3028858542 -0.6410638428
C -0.0259359657 -1.3199904242 0.3899572472
H -2.4800341357 0.6631501458 1.3725055772
H -2.4757948157 -0.8028161442 0.6382738072
H -0.4670116657 -0.2063308842 2.1343763772
H -0.3209961657 2.0753312458 0.9321219672
H 1.1855797543 1.1715146958 1.1727062472
H 0.9905563843 2.1090549458 -1.1886897528
H -0.4888285057 1.1505044458 -1.3982614428
H 2.3816332443 0.1133864558 -1.0397304328
H 1.2974157243 -0.1658102742 -2.3930461328
H 1.2157290943 -2.2498738742 -1.0338124828
H -0.3517532857 -2.2780312142 0.8087011072
