20
Molecule 4281 / 7211 from QM7b dataset
C -2.7386561910 -1.9506568110 -0.4202036634
C -1.3030898810 -1.5264292110 -0.4754736534
C -0.6964290610 -0.7336405610 0.4181025166
C 0.7534437690 -0.3459573710 0.3765338366
N 0.9519166090 1.1086392490 0.4269664866
C 2.3520219190 1.4374638390 0.6652789166
C 0.4662969590 1.7597429790 -0.7857893234
H -3.2790937110 -1.6455408510 -1.3309124434
H -3.2548072810 -1.5167226610 0.4475772166
H -2.8277045210 -3.0474075010 -0.3586077534
H -0.7132782410 -1.9081312810 -1.3187577634
H -1.2691595510 -0.3305130510 1.2622628366
H 1.2407711090 -0.8016556810 -0.5179410634
H 1.2609864290 -0.7663979210 1.2629458966
H 2.6876632490 0.9815694390 1.6082414366
H 2.4653510190 2.5278645190 0.7535810766
H 3.0278150190 1.0884426590 -0.1490092934
H -0.5923640410 1.5138214390 -0.9435116234
H 1.0314566890 1.4506998890 -1.6954276634
H 0.5574224890 2.8503590790 -0.6798980434
