13
Molecule 2703 / 7211 from QM7b dataset
C -3.4107190338 -0.5398818844 -0.2134012161
N -2.2028245638 -0.5721815144 -0.6563838261
N -1.2256405138 -0.0869813944 0.1489840539
C 0.0778515462 -0.0989429144 -0.2549964461
C 1.1334387762 0.3564515056 0.4721462639
C 2.4725648262 0.2827740556 -0.0793945361
O 3.4938678462 0.6630183856 0.4888925839
H -4.1900235838 -0.9308163944 -0.8662441761
H -3.6868154438 -0.1434366244 0.7760945139
H -1.4673716638 0.2866125356 1.0747001539
H 0.2131876862 -0.5221446344 -1.2534047961
H 1.0163304362 0.7827852256 1.4716489939
H 2.5241886562 -0.1654114044 -1.1082613461
