15
Molecule 3369 / 7211 from QM7b dataset
C -2.2672445105 0.4459691711 -0.4885364392
C -0.7675432905 0.3342927411 -0.6992665992
N 0.0631895795 1.2856827911 0.0629443808
C 0.8681008295 0.3438187511 0.6721968208
O 1.8524671995 0.4307200111 1.3778847708
C 0.0135527395 -0.8140917889 0.0638841008
N 0.7392621995 -1.8641963189 -0.6007521492
H -2.7866596005 -0.3842481089 -0.9900184292
H -2.6663918005 1.3829667411 -0.9047386292
H -2.5144035605 0.4156373711 0.5829201808
H -0.5153284705 0.3330436611 -1.7743834892
H 0.1232647295 2.3026794811 0.0490137608
H -0.6315579005 -1.2554370989 0.8407951608
H 1.3595481795 -1.5008848689 -1.3266887792
H 0.1134337695 -2.5498558189 -1.0249908592
