17
Molecule 1834 / 7211 from QM7b dataset
C -0.8963884718 -0.0500854901 -1.1122559995
C -0.6259990918 1.0548364499 -0.0495081495
C -1.1561056218 0.0030444599 0.9416564405
N -0.7052913818 -1.0841872901 -0.0150972595
C 0.7534365682 -1.2502294501 0.2054214505
C 1.5827239782 0.0237095199 -0.0965062395
N 0.8096496182 1.2471738599 0.2241865205
H -1.9416774218 -0.0736489701 -1.4536156295
H -0.2273941218 -0.1431797301 -1.9803490795
H -1.1217855518 2.0349412599 -0.1276815295
H -0.6886879918 -0.0246406601 1.9367648705
H -2.2530531018 -0.0138585101 1.0290662505
H 0.8818960382 -1.5690214201 1.2512817805
H 1.1174202382 -2.0724410901 -0.4311585095
H 1.8777598082 0.0002397499 -1.1626278895
H 2.5157239482 0.0158825699 0.4888934405
H 1.1632863382 2.0171678799 -0.3470435495
