16
Molecule 4032 / 7211 from QM7b dataset
N -1.8640223872 0.7250623780 -1.3696253715
C -1.2016844572 -0.2627112320 -0.6834465815
O -1.1859627972 -1.4290169920 -1.0693374215
C -0.5238806872 0.1782203980 0.6155535485
C 0.8990624928 -0.3344583720 0.7049136785
C 2.0422362128 0.4993109780 0.1774595585
C 1.8709156428 0.2992916380 1.6682583785
H -1.7829726972 1.7023473180 -1.1159882515
H -2.2907381972 0.4826630180 -2.2588810415
H -1.1252423872 -0.2438153820 1.4388193185
H -0.5435136572 1.2741499380 0.7326720385
H 0.9817270228 -1.4130399920 0.5579469385
H 1.8101458628 1.4851281380 -0.2302865615
H 2.8644931328 -0.0123639020 -0.3228451515
H 2.5783666328 -0.3474733520 2.1881996585
H 1.5236981528 1.1511830480 2.2560085285
