13
Molecule 1053 / 7211 from QM7b dataset
N -1.9298027469 -1.3419746044 -0.5553687086
N -0.7585581569 -0.7356764744 -0.0459323186
C -0.0304144269 0.1373057856 -0.7973208086
O -0.2328306669 0.3360880156 -1.9944894986
C 1.0964485131 0.8778588756 -0.0490169686
C 1.1909915531 0.6512607556 1.3842627414
C 1.2395825131 0.4445298956 2.5799718514
H -1.6444379169 -2.2070560644 -1.0299610186
H -2.2571760369 -0.7233675444 -1.3092447286
H -0.6830162269 -0.6966935744 0.9695359014
H 0.9553827431 1.9489916256 -0.2623051786
H 2.0361034731 0.5902734856 -0.5468762486
H 1.2946667131 0.2769736256 3.6364935614
