19
Molecule 1042 / 7211 from QM7b dataset
N -1.5409674687 0.1543953407 1.2808681821
C -0.0697997687 0.1586290907 1.2024513321
C 0.4182053013 -1.1959550693 0.6550248221
C 0.0766437813 -1.3567939393 -0.8317804979
C 0.6153349613 -0.1706254193 -1.6344980379
N 0.0462136513 1.0729924807 -1.1052587779
C 0.4327016513 1.2893090807 0.2891066421
H -1.8884604087 1.0992875107 1.4609740321
H -1.8395595687 -0.4230930193 2.0703294221
H 0.4100475813 0.3256856507 2.1901053121
H -0.0209912287 -2.0157700793 1.2471570621
H 1.5120529813 -1.2560305593 0.7949485021
H 0.4998357313 -2.2955486493 -1.2219586379
H -1.0163388387 -1.3961348693 -0.9517393479
H 1.7309855313 -0.1805582893 -1.5877327379
H 0.3298635913 -0.2615400093 -2.6937282979
H 0.3526829213 1.8661185907 -1.6708932279
H 1.5381721813 1.3449199007 0.4256504621
H 0.0164706913 2.2535666107 0.6257960621
