13
Molecule 1028 / 7211 from QM7b dataset
C -2.4235791798 0.1422995102 -0.4904617144
C -1.0967219098 0.1977170402 -0.2327338344
N -0.2407962598 -0.8771433398 0.0217649856
C 1.0769030902 -0.4512004698 0.2488698156
N 2.1403087202 -1.1328552998 0.5135617856
C 1.0205700402 1.0152354702 0.1212151156
C -0.2484291298 1.3891623202 -0.1597040944
H -2.9712797998 -0.7986634998 -0.5239453944
H -2.9752947698 1.0618035902 -0.6725364944
H -0.5352757698 -1.8467233198 0.0412178756
H 1.9407287202 -2.1417981998 0.5541395056
H 1.9004091902 1.6399415002 0.2456439756
H -0.6283322598 2.3961471802 -0.3149185944
