16
Molecule 4337 / 7211 from QM7b dataset
C -2.2593514483 0.4773669646 -0.5101001562
C -0.7609812983 0.3242429946 -0.7100197762
N 0.0828378717 1.2974153846 0.0191061538
C 0.8282341317 0.3540512846 0.6962494438
O 1.7859509417 0.4346169646 1.4416426438
C -0.0214787983 -0.7977377854 0.0925219038
C 0.7449560217 -1.8624371254 -0.6763729462
H -2.7948610183 -0.3611981454 -0.9787762262
H -2.6311279583 1.4058731046 -0.9681506662
H -2.5094647583 0.4983186246 0.5603833138
H -0.5095670683 0.2865683946 -1.7843845762
H 0.2229710517 2.3007871746 -0.0967438562
H -0.6755851583 -1.2476933654 0.8556837938
H 1.3780757817 -1.4136501454 -1.4559643962
H 0.0626949417 -2.5785698854 -1.1571019562
H 1.4011199017 -2.4221971654 0.0044995338
