14
Molecule 3867 / 7211 from QM7b dataset
C -3.0140983136 -0.2776734452 0.1051449304
C -1.5766598536 -0.6844751152 0.2036782804
C -0.5573691236 0.1487275648 -0.0306993596
O 0.7535269864 -0.2704303652 0.0685204104
C 1.7337608864 0.6556209248 -0.1849870596
C 3.0318374164 0.3412920948 -0.1406347796
H -3.5515056136 -0.8836961552 -0.6415979496
H -3.1181948836 0.7783138648 -0.1817495896
H -3.5378277436 -0.4193332052 1.0639233604
H -1.3458987636 -1.7168181152 0.4802580304
H -0.6921872136 1.1983370748 -0.3133033796
H 1.3720118064 1.6614556348 -0.4215608196
H 3.3691112264 -0.6666876752 0.0967786004
H 3.7714492264 1.1109193548 -0.3459236096
