13
Molecule 2711 / 7211 from QM7b dataset
C -1.9250715069 0.4516989001 -0.1758836830
N -0.5963143769 0.2899154601 0.3916176170
O 0.2055312831 1.4619049901 0.0603691770
C 1.4460206531 0.9713018901 -0.2094008330
C 1.5167857731 -0.3736929299 -0.1895297330
C 0.1832930931 -0.8749411399 0.1020861170
N -0.1943977369 -2.1088099199 0.1309383070
H -2.3767169469 1.3676522001 0.2222536470
H -2.5298497769 -0.3995497999 0.1592155770
H -1.9137824069 0.4810710801 -1.2782029730
H 2.1959005631 1.7392172901 -0.3837849730
H 2.3804498731 -0.9980578599 -0.3849005030
H -1.1914348469 -2.1995119399 0.3609431370
