12
Molecule 1420 / 7211 from QM7b dataset
C 0.2355470182 -1.3358503587 0.1415112543
O -1.0267069118 -0.8292363387 -0.3885721157
C -1.2803607418 0.4613984113 -0.0407939257
C -0.3084445618 1.3514255513 0.2770468743
C 1.0729805282 0.9485715913 0.0746919743
C 1.3579595482 -0.3620483087 -0.0756642057
H 0.3944994982 -2.2930280887 -0.3700939457
H 0.0768095282 -1.5324815087 1.2225313043
H -2.3370172118 0.7130890413 -0.1473787157
H -0.5796714718 2.3773427413 0.5186287443
H 1.8414294182 1.7153806813 -0.0401705357
H 2.3515147882 -0.7273934787 -0.3356917557
