13
Molecule 1058 / 7211 from QM7b dataset
N -1.3191085894 -1.8581171806 -0.7953077482
C -0.0682085094 -1.7893228506 -0.5340859182
N 0.5080011006 -0.6744268206 0.0876559618
C 1.3449535906 0.2433324294 -0.6833877582
C -0.0320596294 0.6586845494 -0.2135756082
C -0.2018862494 1.5874712894 0.8702021918
C -0.3476008694 2.4042017094 1.7558410518
H -1.5485029594 -2.7856549506 -1.1708536882
H 0.6752757806 -2.5873358006 -0.7021872282
H 1.4587776006 0.0576301294 -1.7553009782
H 2.2202525306 0.6344613494 -0.1616953382
H -0.8190985094 0.6701820494 -0.9743588982
H -0.4801420194 3.1123224694 2.5479948818
