15
Molecule 2589 / 7211 from QM7b dataset
C -2.1456414705 -0.4407267390 0.0725485881
C -0.6576707005 -0.3842343590 -0.0109075019
N 0.0699881795 -1.4650825790 -0.1214951519
N 1.4087618495 -1.1260867690 -0.0324941519
C 1.5710490795 0.3389218010 -0.1704699019
C 0.1566191095 0.8317389810 0.0521632681
C -0.2645131605 2.0924545510 0.2749598081
H -2.4877902005 -1.4762894590 -0.0378885419
H -2.6105522705 0.1758125010 -0.7119301819
H -2.5017291005 -0.0564468490 1.0418377781
H 1.9705918095 -1.7130025090 -0.6475078119
H 1.9275253795 0.6059221810 -1.1813030819
H 2.2883653295 0.7285769310 0.5655504781
H 0.4250426695 2.9362592010 0.3086492681
H -1.3217609605 2.3084280310 0.4307516581
