17
Molecule 5181 / 7211 from QM7b dataset
C -1.1692817325 -2.6264250733 -0.4005360240
N 0.1439488375 -2.0175226533 -0.2239356340
N 0.1167246575 -0.6530698333 -0.1044228840
C 1.0456702375 -0.0583444733 0.5610373860
C 1.1146477475 1.4394805567 0.6438052460
C 0.1910982875 2.1688824267 -0.3358549740
O -1.1893212325 1.8817258767 -0.1262481240
H -1.0302305225 -3.6969015533 -0.6007438540
H -1.6543810525 -2.1711305433 -1.2736603840
H -1.8347526325 -2.5080351633 0.4740167760
H 0.7144557075 -2.4815777433 0.4950576960
H 1.8176518275 -0.6419410533 1.0977186860
H 2.1566134175 1.7585432267 0.4615304560
H 0.8796230575 1.7542464067 1.6774390060
H 0.4946914975 1.9181473167 -1.3708716140
H 0.3066539175 3.2556914167 -0.2080645040
H -1.2532770625 0.9117374667 -0.2546374540
