15
Molecule 4873 / 7211 from QM7b dataset
O 0.0648385130 -2.5355571646 -0.2119714936
C -0.6625727970 -1.4578899346 0.3898341464
C 0.2560569130 -0.2416951846 0.3871825864
C 0.5636466830 0.3274805454 -1.0315659136
N 0.4156947530 1.7960648754 -0.9415043436
C -0.0911950470 2.0236909654 0.2161674964
N -0.3928658670 0.9246817354 1.0233145664
H -0.5199787470 -3.3097173646 -0.2533331236
H -0.9583608070 -1.7069177246 1.4268420664
H -1.5795013270 -1.2133758646 -0.1786122836
H 1.1902645530 -0.5088505546 0.9142109564
H -0.1554348670 -0.0623618846 -1.7727070236
H 1.5685092530 0.0646123254 -1.3878603536
H -0.3410338970 3.0256016554 0.5761167264
H -0.2785889770 1.0407221054 2.0287335264
