15
Molecule 5209 / 7211 from QM7b dataset
N -2.7642500579 -1.0214293564 1.3154345951
N -1.4207061179 -1.1836998464 1.0741337651
C -0.9013501579 -0.5598779264 0.0770462351
C 0.5768214921 -0.6211207264 -0.1714578049
C 1.2371497821 0.7400437436 -0.0862015149
C 2.3914335221 1.1006310436 -0.9256057849
O 1.0787545121 1.6120086336 -1.2300651149
H -3.1355595779 -1.8393536564 1.7942593551
H -3.3312604279 -0.7663998364 0.4966935751
H -1.5142743479 0.0520109636 -0.6100501449
H 0.7775702221 -1.0371484564 -1.1735684349
H 1.0263300721 -1.2932735264 0.5758734751
H 1.1239524221 1.2565308836 0.8755414151
H 2.7813756821 0.3647991436 -1.6380805349
H 3.1121952621 1.8446130336 -0.5698130949
