13
Molecule 1057 / 7211 from QM7b dataset
C -2.4470588886 -0.1790302452 -0.0062353436
C -1.1016458786 -0.2646020652 -0.0033538236
O -0.3000913986 0.8739027348 0.0019395064
C 1.0317975214 0.4679931048 0.0038079664
C 2.0408216014 1.3620616548 0.0088510564
C 1.0538887614 -0.9817577752 -0.0005033136
C -0.2284265386 -1.4220793152 -0.0048272636
H -2.9519823486 0.7843151648 -0.0044957136
H -3.0415856086 -1.0891368552 -0.0103492236
H 3.0690445214 1.0091910448 0.0101777564
H 1.8473848214 2.4323728248 0.0116309764
H 1.9651080114 -1.5741739952 -0.0001675736
H -0.5834976786 -2.4493022152 -0.0087479436
