16
Molecule 1993 / 7211 from QM7b dataset
O -2.0037401788 -2.0853500538 -0.1410130838
C -1.4869864688 -1.7042218938 0.8944293262
C -0.5403022088 -0.5403919238 1.0129550962
C -0.2432493088 0.1766740762 -0.2984161438
N 0.6311780212 1.3264731062 -0.0577224338
C 2.0715537912 1.0465601562 -0.1373063338
C 1.3791741112 1.7942958662 -1.2280989838
H -1.7027150288 -2.2277893638 1.8630626462
H 0.3861865212 -0.9167477538 1.4857016562
H -0.9615740088 0.1626885762 1.7544773662
H -1.1825777988 0.5463905662 -0.7371785338
H 0.1897210912 -0.5394984538 -1.0272175938
H 2.3812946512 0.0199982562 -0.3637866938
H 2.6980364212 1.5761047262 0.5835150762
H 1.4925039312 2.8769020962 -1.3142172838
H 1.2296600112 1.2619423562 -2.1735727038
