14
Molecule 503 / 7211 from QM7b dataset
C -1.8543498640 0.2056707994 -0.1209984118
C -0.3616093140 0.3040889194 -0.3736567918
O -0.1625516240 0.3915277694 -1.7735996518
C 0.4041353860 1.3494961194 0.5228608982
N 1.0614658760 0.2054126294 1.1730807082
C 0.4951326160 -0.7748339206 0.3863956082
O 0.6403176860 -1.9795503006 0.3209645982
H -2.0720625440 0.1889816594 0.9549601782
H -2.2434106840 -0.7150251906 -0.5747575018
H -2.3665636940 1.0657712194 -0.5751791918
H 0.7509791960 0.1241694694 -1.9780328518
H -0.2250441140 1.9538538094 1.1928746682
H 1.0870886860 1.9946454894 -0.0489912818
H 1.7167705860 0.1473638794 1.9510336382
