20
Molecule 7046 / 7211 from QM7b dataset
C -0.7994553226 -1.8145397782 -1.5857079070
C -1.0247816726 -1.3099803982 -0.1504597770
C -0.6012047426 0.1288189618 0.0506436630
C -1.5028921126 1.1197645918 0.1276365030
C 0.9014513174 0.3666544418 0.1657102030
C 1.3303375174 1.8345894518 0.0653848430
N 1.3755651574 -0.3171656282 1.3915692530
H -1.1162877926 -2.8632771182 -1.6808473670
H 0.2606795774 -1.7655335082 -1.8751320070
H -1.3738471626 -1.2170787782 -2.3091338870
H -0.4573273426 -1.9415143382 0.5511748030
H -2.0910308026 -1.4102374182 0.1047758530
H -2.5725324826 0.9078769818 0.0657497330
H -1.2191874126 2.1657732018 0.2486344830
H 1.3744009574 -0.1747558482 -0.6748883670
H 0.9327411974 2.4255560518 0.9047827830
H 0.9900923274 2.2965880218 -0.8735975670
H 2.4273942774 1.9062707918 0.0991636530
H 1.0008436074 0.1770620218 2.2079404130
H 2.3943750474 -0.2384142882 1.4511475330
