11
Molecule 5905 / 7211 from QM7b dataset
C -1.9262357552 -1.3642092679 0.0062420181
C -0.4405296852 -1.2441134179 0.0061541481
C 0.2368304648 -0.0638661779 -0.0005833719
C -0.4616370552 1.1868244221 -0.0081098319
N -1.0726569652 2.1830518321 -0.0129236919
C 1.6680383648 -0.0216646579 0.0014411281
N 2.8361644748 0.0084858621 0.0026909981
H -2.2422313052 -2.4119181879 -0.0290782519
H -2.3661322752 -0.8322193279 -0.8514844819
H -2.3566803552 -0.8992137279 0.9071128781
H 0.1616933648 -2.1552380179 0.0142141681
