17
Molecule 5419 / 7211 from QM7b dataset
C 0.5351632126 1.1525509483 0.8182909290
C 1.4982319826 0.1876496983 0.0642913090
C 0.5212167126 -0.6522975417 -0.8313488510
C -0.5131002274 0.4332119683 -1.2087339310
C -0.8743027674 0.7452206783 0.2618970890
C -1.1351059074 -0.6586666017 0.7830600390
C -0.3027647074 -1.4922570917 0.1308961290
H 0.7509605126 2.2034095883 0.5733335590
H 0.5883036026 1.0446544083 1.9100553790
H 2.0807601726 -0.4519239917 0.7410666590
H 2.2078491326 0.7443375283 -0.5661096110
H 1.0101016426 -1.1899626017 -1.6533058010
H -0.0722795474 1.2903689683 -1.7417267710
H -1.3624933774 0.0299298883 -1.7776255310
H -1.6629788774 1.4866544383 0.4406414090
H -1.7817980774 -0.9001240217 1.6271376190
H -0.1344549774 -2.5498165517 0.3364168090
