15
Molecule 2219 / 7211 from QM7b dataset
C 1.1406912408 1.1992776956 -0.1847630717
N -0.2442563492 1.5173117456 0.1428899983
C -1.3776676292 0.7331214356 -0.0019522517
N -1.5899757792 -0.5286143244 -0.0452753917
C -0.5965868392 -1.5680326544 0.0749520783
C 0.8868169508 -1.3406255644 0.0763287583
C 1.6012951508 -0.2124647044 -0.0203030117
H 1.7790889108 1.8431973556 0.4442943383
H 1.3559554908 1.4986997156 -1.2318364717
H -0.4495751592 2.5098328956 0.0599642083
H -2.2750334492 1.3703155456 -0.0349965917
H -0.8042662892 -2.3078033244 -0.7234120217
H -0.8409287992 -2.1268953544 1.0011187683
H 1.4553414308 -2.2746629144 0.1606505683
H 2.6917495208 -0.3012231144 -0.0246600517
