16
Molecule 1973 / 7211 from QM7b dataset
C 0.1822112402 0.2222956842 2.2330648355
C 0.9595721902 -0.0269156858 0.9413777755
C 1.9102017402 -1.2093220758 1.0539111255
O 0.0802963302 -0.3338030358 -0.1692566945
C -0.6474467698 0.7906155042 -0.6309202945
C -1.3543709098 0.4371835042 -1.8641599345
N -1.9316908298 0.1988612442 -2.8478718045
H -0.4873146598 1.0906235342 2.1595382955
H 0.8807280002 0.4204866142 3.0582969455
H -0.4185579398 -0.6616180958 2.4916935355
H 1.5358664202 0.8835920942 0.6770033055
H 1.3515173102 -2.1266284458 1.2885585755
H 2.6423033302 -1.0340946358 1.8537488555
H 2.4494162802 -1.3629660258 0.1104037855
H 0.0245936102 1.6448820142 -0.8510172345
H -1.4000921298 1.1409769342 0.1012890755
