15
Molecule 1230 / 7211 from QM7b dataset
C -1.9891948526 -1.1892351417 2.4840115748
C -1.0847594526 -1.2739146517 1.4920437648
C -0.6354597326 -0.1197450817 0.7349722048
N 0.2346423574 -0.2580635717 -0.2070003152
N 0.5398608274 1.0073559483 -0.8273824952
C 0.8734981174 0.7689003483 -2.2624097052
C 1.9603167174 0.9857991583 -1.2851731252
H -2.3110607526 -2.0705573117 3.0385536948
H -2.4320008126 -0.2317792017 2.7679529148
H -0.6443037226 -2.2345172117 1.2117070548
H -1.0487515426 0.8722480383 0.9779743848
H 0.5487644174 1.5721450083 -2.9250989952
H 0.7194073774 -0.2501567717 -2.6208836352
H 2.5417680674 0.1135233383 -0.9822114252
H 2.4582498974 1.9532196883 -1.2079826052
