18
Molecule 5536 / 7211 from QM7b dataset
C -0.6149900712 -1.1212202944 1.3553630579
C 0.5112707488 -0.6113764244 0.4300599279
N 1.3312525988 -1.6990805444 -0.1289944621
C -0.0570811712 0.2822258256 -0.6662188821
C -0.0687585912 -0.0976023844 -1.9611772421
C -0.5985231012 1.5976496356 -0.3091396121
C -0.5328175112 2.2180787556 0.8838601579
H -1.2253720712 -0.3049293044 1.7652808579
H -0.1892581012 -1.6910144744 2.1946632579
H -1.2845056712 -1.7884991844 0.7906546479
H 1.1998466688 0.0110537356 1.0287686979
H 0.7163790488 -2.4176230844 -0.5254521021
H 1.8293233888 -2.1595888244 0.6362617579
H 0.3886887588 -1.0288679944 -2.2917897321
H -0.5039434212 0.5481414856 -2.7259548321
H -1.0767652412 2.1304872656 -1.1384031321
H -0.0611902012 1.7694592756 1.7596258279
H -0.9465731612 3.2184142356 1.0128215379
