14
Molecule 1998 / 7211 from QM7b dataset
N -1.3093046614 -1.6622358848 -1.0677596155
C -0.7958244214 -0.8645389748 -0.0776250955
O -1.1540229114 -0.9562105748 1.0946782645
C 0.2566711886 0.1371993952 -0.5276238755
C 0.0711387986 1.5927074352 -0.0355129855
O 1.4197102286 1.6354809452 0.5086842345
C 1.5493653186 0.1980191752 0.3210021145
H -1.0453437914 -1.5560457548 -2.0400485555
H -2.0358262614 -2.3276630948 -0.8221571555
H 0.4638032286 0.0801231452 -1.6053514055
H -0.6893161014 1.6789935352 0.7578032045
H -0.0848972614 2.3587006752 -0.8100084855
H 2.4869836186 -0.0676642848 -0.1899731355
H 1.4561253586 -0.3452781748 1.2757119045
