18
Molecule 6249 / 7211 from QM7b dataset
O -0.9432543623 -2.0553104067 -1.3328358433
C -0.6448680123 -1.5219747267 -0.0335285633
C 0.4189923377 -0.4351251967 -0.1930841233
C -0.1057649023 0.8343053833 -0.9070902133
C -0.2855749723 1.8577863333 0.2264820667
C 0.8634550177 1.4975988133 1.1682945667
N 0.8365308677 0.0253442533 1.1550437367
H -1.6352812323 -2.7285012167 -1.2288702833
H -0.2577502623 -2.3067574967 0.6422862467
H -1.5421390623 -1.0808353967 0.4406138067
H 1.2555542677 -0.8741075967 -0.7679460733
H -1.0241413123 0.6298050133 -1.4738676733
H 0.6462882877 1.1995867333 -1.6225289333
H -0.2431417823 2.8988995933 -0.1214178733
H -1.2476414723 1.7083076233 0.7413501967
H 1.8123691577 1.9240068733 0.7793883067
H 0.7171741777 1.8768898033 2.1918064867
H 1.7315912477 -0.3777640867 1.4301239867
