12
Molecule 2205 / 7211 from QM7b dataset
O -1.7983262719 -1.5284720000 1.0023984380
C -0.6877546419 -1.3813892300 0.5188866580
N -0.1927004519 -0.1567398600 0.1050021480
C -0.7852698819 1.1999584000 0.1196677080
C 0.5314186581 1.7226042200 -0.5193373620
C 1.0335741381 0.2692526700 -0.4722980820
O 2.0324786081 -0.3381340500 -0.7727460220
H 0.0445952681 -2.1994967800 0.3560898680
H -0.9982216719 1.5565817000 1.1349031080
H -1.6838046919 1.2759544200 -0.5047022120
H 0.4399445481 2.1223297200 -1.5366165420
H 1.1213613881 2.4121020000 0.0965778780
