11
Molecule 1582 / 7211 from QM7b dataset
O -2.0253954230 -1.9992902514 0.2227899594
C -1.1749290430 -1.4317553714 -0.4354001706
C -0.0508936630 -0.6517649814 0.1667626694
O 1.1253335070 -0.5121081914 -0.6504891706
C 0.3089332570 0.6590586086 -0.4658171706
C 0.8242311870 1.7336288286 0.3351577494
C 1.2404042570 2.6682616986 0.9873448594
H -1.1695535530 -1.4481347214 -1.5558551606
H 0.1150071070 -0.7714796614 1.2419156894
H -0.2477204830 0.9606484686 -1.3616160606
H 1.6162862870 3.4855807586 1.5688615994
