14
Molecule 1506 / 7211 from QM7b dataset
C -1.3012632794 -2.4875515848 0.8511230240
C -0.0647396994 -1.7085143548 0.4175514540
C -0.3520314394 -0.2380804548 0.1492411040
O -1.4433199194 0.2896607552 0.2900776040
N 0.7742302806 0.4881517852 -0.2847973660
C 0.7694307406 1.8432957052 -0.6055269160
O 1.7659236806 2.4317153352 -0.9884888060
H -1.0454952894 -3.5395107948 1.0325060140
H -2.0815625094 -2.4468835148 0.0803320840
H -1.7274235494 -2.0685335648 1.7715291640
H 0.3761202406 -2.1416420148 -0.4968719560
H 0.7267393206 -1.7630729548 1.1851740740
H 1.6710320906 0.0127021852 -0.3934640460
H -0.2282302894 2.3039735752 -0.4726661560
