14
Molecule 2486 / 7211 from QM7b dataset
C -2.6618088200 -1.0193310981 -0.3773396413
O -1.2657102600 -1.1736258881 -0.0576357413
C -0.5390252800 -0.0034205781 -0.1100941213
O -1.0433411800 1.0742517019 -0.4067139413
C 0.8576180700 -0.2582025081 0.2257899287
C 1.7388662500 0.7743622319 0.2233113187
N 3.0614954500 0.7174319219 0.5582071687
H -3.0913717600 -2.0243004381 -0.3041223813
H -2.7873433700 -0.6184705881 -1.3924189213
H -3.1508135400 -0.3383515481 0.3328533887
H 1.1537349400 -1.2789609881 0.4716748187
H 1.3643231900 1.7690525219 -0.0332176013
H 3.5136997600 -0.1860816381 0.6558338887
H 3.6658128300 1.4896344319 0.3067391787
