22
Molecule 6106 / 7211 from QM7b dataset
C -0.3630844906 -1.9344165087 -1.1542739554
C -0.8045139406 -1.0527923787 0.0192531646
C -0.3273829306 0.4260484713 0.0141175746
C -0.9111403006 1.1758130513 -1.1920044554
N -0.7976941806 1.1432489313 1.2243626646
C 1.2157645494 0.5413583113 -0.0310555154
C 1.9714577394 -0.1102193387 1.1300469146
H -0.7708981406 -2.9503864487 -1.0475317754
H 0.7317094794 -2.0263073187 -1.2093164954
H -0.7155265206 -1.5415038687 -2.1191114254
H -0.4710414006 -1.5184238187 0.9625052846
H -1.9077981406 -1.0401541987 0.0665748946
H -0.5477649506 0.7621729013 -2.1427599654
H -0.6278258306 2.2366381113 -1.1448683154
H -2.0114595306 1.1161643513 -1.1965683254
H -0.5320173306 0.6152038613 2.0608377246
H -1.8221572606 1.1593380413 1.2249789346
H 1.4549932894 1.6164865013 -0.0576291054
H 1.5736296394 0.1168309113 -0.9831852354
H 1.6815135694 0.3219410313 2.0995401246
H 3.0534196694 0.0517819013 1.0213769946
H 1.8084789694 -1.1972741187 1.1781156646
