17
Molecule 7002 / 7211 from QM7b dataset
C -1.3873204630 -2.2664593141 -1.0632892468
C -0.2009055630 -1.7140641841 -0.2995843368
O -0.2347069830 -0.2788454141 -0.3967155368
C 0.7284018770 0.4207235359 0.2856835432
C 1.7435614470 -0.1042614641 0.9929668032
C 0.4858443470 1.8974817659 0.1098251232
O -0.8188321530 2.3039076559 0.5373989832
H -1.3804176430 -3.3640784641 -1.0155456268
H -1.3485633530 -1.9672104241 -2.1194146768
H -2.3329106630 -1.9098875941 -0.6325510368
H 0.7522554870 -2.0791924941 -0.7213498268
H -0.2367393330 -2.0017044341 0.7658747432
H 1.9274658170 -1.1729789641 1.0793734132
H 2.4283390570 0.5665297159 1.5076760632
H 0.6447031070 2.1594601359 -0.9547362368
H 1.2065646970 2.4629980159 0.7136920232
H -1.4498739530 1.7050445359 0.0979022732
