15
Molecule 4627 / 7211 from QM7b dataset
C -0.7808448385 -0.7291568496 1.4747409100
C 0.1120048915 -0.0608246596 0.4343651300
O -0.7483414185 0.5009861304 -0.6325802900
C -1.0020377385 -0.3082184196 -1.6841861200
O -0.6075885185 -1.4445843296 -1.8437872900
C 0.9003270515 1.0891870104 0.9852889000
C 2.2350027615 1.1139304604 1.0421578500
H -0.1611067985 -1.1421619996 2.2821988200
H -1.3523551585 -1.5491433596 1.0206064200
H -1.4805303185 -0.0021070696 1.9103709200
H 0.7754215315 -0.8014325896 -0.0344892000
H -1.6419755985 0.2457126904 -2.3996007400
H 0.3129139715 1.9243906904 1.3813934700
H 2.8371227915 0.2906760704 0.6497106500
H 2.7712363115 1.9533459104 1.4865502800
