15
Molecule 5191 / 7211 from QM7b dataset
C -0.1781163268 0.9285712794 -2.0924789277
O -0.8346295068 1.7405123194 -1.0986132477
C -0.6111668468 0.3424938494 -0.8133863277
C 0.3802934532 0.0490551794 0.2784150823
C -0.1484739568 -0.1336027006 1.7188342823
C 0.5269592332 -1.5139422306 1.6504886323
O 0.8381223832 -1.3399076606 0.2334758423
H -0.7642711368 0.7332152894 -2.9960003377
H 0.8839702832 1.1478578194 -2.2464539177
H -1.5195392368 -0.2739438906 -0.8048338277
H 1.2266691532 0.7561866194 0.1996556923
H -1.2438273368 -0.1695935206 1.7819070123
H 0.2377197732 0.5696839994 2.4656173623
H 1.4472994032 -1.6101552406 2.2505586823
H -0.1129372468 -2.3935406106 1.8194121323
