19
Molecule 4532 / 7211 from QM7b dataset
C 0.3743185121 0.1411850094 2.4298012706
C 0.8868927221 -0.2270362406 1.0441329706
C 1.5220560721 -1.6172481106 1.0108777406
O -0.2434560779 -0.1338673606 0.1541579206
C 0.0905824221 -0.0985178506 -1.2343804894
C -1.1541012279 0.3584983994 -1.9763951694
O -1.5773925179 1.6558703494 -1.5608398694
H -0.0640614279 1.1482507294 2.4261140006
H 1.1940319121 0.1213777594 3.1608798806
H -0.3970726679 -0.5728104706 2.7537408606
H 1.6385693921 0.5225091994 0.7211915206
H 0.7844287421 -2.3792996306 1.3034990906
H 2.3681381421 -1.6657462906 1.7115005306
H 1.9051336021 -1.8688918806 0.0122522606
H 0.4034181321 -1.0936854806 -1.6051287594
H 0.9170530921 0.6190299394 -1.4055188294
H -1.9586311679 -0.3873244506 -1.8301984094
H -0.9378746179 0.4215031294 -3.0530933594
H -1.6048353679 1.6177762894 -0.5860011394
