11
Molecule 179 / 7211 from QM7b dataset
O -1.6726046427 -1.7288169302 1.1237197473
C -0.9425925327 -1.4963848502 -0.0863647927
C -0.4246612627 -0.0957204302 -0.0587360227
C 0.8437414373 0.2360971898 -0.3623854727
C 1.3116258873 1.5797909198 -0.3937018727
N 1.7309765573 2.6714571898 -0.4315624627
H -2.1857765227 -2.5471551102 1.0135437373
H -1.6053457227 -1.6005627502 -0.9684946227
H -0.1095537027 -2.2134833202 -0.2060156427
H -1.1469291827 0.6802897698 0.2084107973
H 1.5829251973 -0.5314504502 -0.6091360427
