16
Molecule 5542 / 7211 from QM7b dataset
N -1.8994010055 0.0936955051 1.3419649805
C -0.5243692755 0.0024066851 0.8318170905
C -0.2821401255 1.1802032951 -0.1168084095
O 1.0660083345 1.2023466551 -0.6268725995
C 1.5078529645 -0.0212728449 -1.0586262095
C 0.9043684245 -1.1962291149 -0.8155259295
C -0.3217762755 -1.3003131449 0.0514209605
H -1.9743256455 0.8567048851 2.0200155605
H -2.1364061455 -0.7624519849 1.8496342105
H 0.2495335045 0.0506796651 1.6251517105
H -0.4194979955 2.1451820551 0.3912473805
H -0.9907118955 1.1173111551 -0.9614108095
H 2.4326245245 0.0753220351 -1.6295263695
H 1.3502281545 -2.0992249149 -1.2325544195
H -1.2280349955 -1.5015704549 -0.5489926795
H -0.2192834155 -2.1453634749 0.7539963305
