15
Molecule 320 / 7211 from QM7b dataset
C -0.9956263606 -0.0027512146 -1.0552472182
C -0.6002356006 1.0183251554 0.0527400518
C -0.9784122106 -0.0908292346 1.0754574818
C -0.5288619306 -1.0896837646 -0.0353568682
N 0.9399015394 -1.2012802946 -0.0543039082
C 1.5324415394 -0.0557383246 -0.0359380582
N 0.8622832494 1.1494075354 0.0972572618
H -2.0832628406 -0.0285510946 -1.1999859882
H -0.4720203906 0.0475143954 -2.0200874282
H -1.0720973706 2.0075117254 0.1059778018
H -0.4332235706 -0.1133722246 2.0283421818
H -2.0627766606 -0.1220089946 1.2419141318
H -0.9814131506 -2.0883589846 -0.0741195282
H 2.6258972894 0.0052330454 -0.0834788182
H 1.2877705494 1.9792057454 -0.3091681582
