17
Molecule 5720 / 7211 from QM7b dataset
C -1.7812797434 0.6936939048 0.2866155100
O -1.7651511734 -0.7229229752 -0.1409166200
C -0.3156221634 -0.6937203652 0.1504264700
C 0.9144211566 -1.2109008952 -0.5675784200
C 1.9250571266 -0.0747605452 -0.1051731000
C 1.0911104566 1.1708664648 0.4342519200
C -0.2829307634 0.7871643248 -0.0972023800
H -2.5107113634 1.2794377148 -0.2887357400
H -1.9809727134 0.7687090248 1.3708860500
H -0.2073109134 -0.9074958752 1.2358509500
H 1.2564581166 -2.2102950852 -0.2660477900
H 0.7767956266 -1.1974303052 -1.6584273400
H 2.5926356166 -0.4538443552 0.6804219300
H 2.5616323466 0.2249415448 -0.9483884700
H 1.1161502066 1.2052639348 1.5334997000
H 1.4905027866 2.1205243648 0.0535532100
H -0.2785067434 0.9195155048 -1.1933195400
