15
Molecule 1734 / 7211 from QM7b dataset
N -1.8606478242 0.0524947711 0.2210283148
C -0.4122333942 -0.0027473489 0.0500383648
C 0.3938720658 1.0559034311 0.8771165148
N 1.3650731358 0.0216864311 1.3538981448
C 0.4735516158 -1.0562601889 0.8276767448
C -0.0769039742 0.0234106311 -1.3698150252
C 0.2386949658 0.0156649711 -2.5424206152
H -2.1014657942 -0.1629592489 1.1918774448
H -2.3204872842 -0.6411076689 -0.3729141052
H -0.2117180142 1.4446035911 1.7121340448
H 0.8176290458 1.8987780311 0.3155076448
H 2.2109243858 0.0661334811 0.7805495548
H 0.9619936058 -1.8357568189 0.2266706248
H -0.0974852342 -1.5291678389 1.6450722748
H 0.5077444358 0.0243790811 -3.5789586052
