17
Molecule 4233 / 7211 from QM7b dataset
C -0.4927309850 -0.1778161290 2.3692958657
C 0.2647947150 -0.3557313590 1.0610621157
C 0.5672075850 -1.8167666190 0.7411780357
O -0.5771118750 0.2254035410 0.0306899857
C 0.0204229650 0.6504444510 -1.1378844343
N -0.9639459850 1.1585198610 -1.9696423543
N 1.2567890950 0.6703436810 -1.4786801043
H -0.6912471950 0.8843956910 2.5625734257
H 0.0971484950 -0.5816307990 3.2036105857
H -1.4529795950 -0.7121500890 2.3339759757
H 1.2021024850 0.2268888910 1.1099997557
H -0.3643019650 -2.4009509190 0.7237011257
H 1.2288328350 -2.2444730190 1.5080422657
H 1.0602583250 -1.9192652990 -0.2344852543
H -1.8871493450 0.7532208410 -1.8459129943
H -0.6594419650 1.2507785110 -2.9339858943
H 1.8756054750 0.3371310010 -0.7366911643
