12
Molecule 4994 / 7211 from QM7b dataset
C -2.0694121712 -2.4509848795 -0.0000186938
C -0.7249042512 -2.3801056095 0.0000035462
C 0.0161919488 -1.1711400795 0.0000027162
C 0.6899327888 -0.1568394795 0.0000019262
C 1.4937206388 1.0608299605 0.0000010162
C 0.6903521588 2.2900894005 0.0000011362
N 0.0727119688 3.2781695305 0.0000012362
H -2.5744060012 -3.4163357295 0.0000157862
H -2.6861606312 -1.5518308195 0.0000205662
H -0.1345376812 -3.3021228995 0.0000039162
H 2.1554163588 1.0860031405 -0.8830028638
H 2.1554174988 1.0860037205 0.8830040562
