12
Molecule 1563 / 7211 from QM7b dataset
C -1.6685625057 -0.8843633880 0.1893685722
N -0.2185898257 -0.9092679980 0.0778158522
C 0.6154851343 0.1737020820 -0.0789747778
C -0.0344235357 1.5417920820 0.0393013622
O 1.8208399943 0.0250794120 -0.2850335678
H -2.0181268257 -1.8887627880 0.4567096222
H -2.1647294657 -0.5898617580 -0.7512307978
H -1.9951165457 -0.1989733980 0.9842345822
H 0.2438103043 -1.8038879380 -0.0674619978
H -0.8528120057 1.6663449520 -0.6847047978
H 0.7324972643 2.3002228220 -0.1440163378
H -0.4571084557 1.6923741420 1.0438563622
