15
Molecule 3279 / 7211 from QM7b dataset
C 0.4966349852 1.1951770149 0.6816257988
C -0.9424035848 0.7547399149 0.4479259988
C -0.9518195948 -0.0430156951 -0.8663652212
C 0.4818586152 -0.0561347851 -1.3799654512
C 1.1410771652 -0.0401544251 0.0161910888
O 0.4870167152 -1.1471368551 0.6927460488
C -0.8685396448 -0.7584245751 0.4665899488
H 0.7604195252 2.1326268349 0.1712733688
H 0.7534712452 1.2665109849 1.7479716288
H -1.8096301148 1.3047969949 0.8075621088
H -1.8262510448 -0.1026154851 -1.5112007612
H 0.7270623652 -0.9706802751 -1.9382031112
H 0.7449632252 0.8276962049 -1.9787265512
H 2.2265215752 -0.1617308151 0.0821702888
H -1.6135381448 -1.4326342951 0.8811716588
