18
Molecule 4026 / 7211 from QM7b dataset
C -2.0120116837 -0.2423903182 -0.0937376794
C -0.4977275737 -0.4361711882 -0.1500129894
C -0.0159656737 -1.3678496282 0.9679638406
O -0.2220908737 -1.0415825082 -1.4354350694
C 0.2048545663 0.9238131918 -0.1370410194
C 1.0169879863 1.4583677918 0.9882671006
N 1.6838703963 0.8683327918 -0.1957164594
H -2.3508438637 0.3721389118 -0.9396840294
H -2.3058824037 0.2513354718 0.8430375706
H -2.5193294637 -1.2151517082 -0.1517703094
H -0.3336649937 -1.0134474682 1.9594737606
H 1.0807292563 -1.4507408982 0.9586716306
H -0.4415989237 -2.3668270982 0.8046382206
H 0.7511545363 -1.0353846482 -1.5178233994
H -0.2840952137 1.6638713018 -0.7801684994
H 1.1322181763 0.8779436718 1.9059070206
H 1.0490292663 2.5424289618 1.1225051406
H 2.0350921163 1.6135449318 -0.8039268494
