15
Molecule 3407 / 7211 from QM7b dataset
O -1.2052980461 -2.0540596298 0.9576777878
C -0.4897136461 -1.7117057898 -0.2324869322
C 0.0757323239 -0.3119354398 -0.2164080722
N 1.0680647439 0.0656461202 -0.9480421522
C 1.2740698839 1.4963095202 -0.6332219122
C 0.0178670439 1.9428490102 0.1607046878
N -0.4741450561 0.6393195702 0.6416697878
H -0.5709953361 -2.0440674998 1.6965112378
H -1.2244890661 -1.7892143698 -1.0489970922
H 0.3268008039 -2.4170309098 -0.4569582322
H 2.1884679839 1.5933503902 -0.0219497122
H 1.4286604639 2.0807226502 -1.5508881822
H -0.7248600661 2.4296452902 -0.4966186722
H 0.2481211839 2.6195938502 0.9946587778
H -1.4544930461 0.5316140002 0.8958994978
