13
Molecule 1219 / 7211 from QM7b dataset
C -2.0670501640 0.2808315719 0.5099037586
C -0.7780016340 0.3202363919 0.1585472986
C 0.1285054360 1.5176541019 0.0314861886
O 1.4620314760 0.9851452819 0.1313851986
N 1.3326531960 -0.3151485981 -0.5080732214
C 0.0796048660 -0.8563788681 -0.1734205614
N -0.1407912340 -2.1203934381 -0.2246721714
H -2.6145497840 -0.6635968381 0.5414068086
H -2.6205301140 1.1825635519 0.7728482886
H 0.0192852360 2.2626803219 0.8297384486
H -0.0091650840 2.0020430919 -0.9544999814
H 2.1405766360 -0.8716364881 -0.2204912214
H -1.1332534540 -2.3184808281 -0.0499662914
