17
Molecule 2590 / 7211 from QM7b dataset
C -1.0631620305 -1.9789520492 1.3896238972
C -0.6259588905 -1.5457227692 -0.0180117828
C 0.1101500595 -0.2332096592 -0.0396021128
C -0.6306070905 1.0535064008 0.2546085072
N -0.9397583705 1.7462025708 -1.0128292428
N 1.3593575495 -0.2871371992 -0.3498477728
O 1.9518312095 1.0175493608 -0.3729701528
H -1.6260467905 -2.9217775392 1.3430479372
H -1.7122294705 -1.2306928592 1.8679083372
H -0.1902292305 -2.1342958392 2.0394372672
H -1.5119619505 -1.4413100792 -0.6679121328
H 0.0212184595 -2.3136944192 -0.4649902028
H -0.0247645505 1.6503597308 0.9625278272
H -1.5828330605 0.8115787408 0.7489864372
H -0.0591893605 2.0642469808 -1.4268161528
H -1.4825641205 2.5890136008 -0.8089017328
H 2.8742238595 0.7989876608 -0.5904983028
