19
Molecule 4247 / 7211 from QM7b dataset
C -2.6678303128 0.5583707515 0.8211597440
O -1.2519086728 0.4863034515 0.8396529740
C -0.7411029828 -0.1725183885 -0.3198378960
C 0.7622096172 -0.2830590385 -0.2260349060
C 1.2771755472 -1.1270330885 0.9238633240
C 1.5116826672 -0.3145403185 -1.5416199360
C 1.5721831372 0.9166147915 -0.6647358260
H -2.9796900228 1.0707619515 1.7403697340
H -3.1283206028 -0.4483980085 0.7956908440
H -3.0364178028 1.1309326915 -0.0522953560
H -1.0278873028 0.3914449415 -1.2317794960
H -1.1922000628 -1.1850791885 -0.4007119760
H 2.3759047272 -1.1596415385 0.9270432040
H 0.9085257472 -2.1626852385 0.8487250640
H 0.9428551772 -0.7156861785 1.8869986240
H 0.9376448372 -0.2555251585 -2.4681230460
H 2.3960692372 -0.9508283285 -1.5983060560
H 2.5011724572 1.1210187515 -0.1309477960
H 1.0317069572 1.8062494415 -0.9906545560
