13
Molecule 729 / 7211 from QM7b dataset
C -2.0827539975 0.4716851540 0.1217796090
C -0.5948809775 0.4902670240 0.0483279390
C 0.3551996525 1.5205883740 0.0371701190
C 1.6062048025 0.8858071140 -0.0497462010
N 1.4770279825 -0.4599214860 -0.0910139410
N 0.1579348025 -0.6368230160 -0.0303197310
O -0.3646803675 -1.9235373460 -0.0482806010
H -2.4643084075 1.4992145940 0.1385910290
H -2.4369004975 -0.0423000660 1.0280339990
H -2.5218287175 -0.0460817060 -0.7438389910
H 0.1437558925 2.5838177640 0.0857419490
H 2.5989076125 1.3242328940 -0.0861715410
H 0.4504606825 -2.4634591960 -0.1319647310
