13
Molecule 1138 / 7211 from QM7b dataset
C -0.2628894200 -1.5669451156 0.8439001036
C 0.0163741000 -1.7258166456 -0.7039116864
C 0.1229937300 -0.2030016256 -0.7241219464
C 0.2910430300 1.1019129144 -1.1767379164
C 0.1197970400 1.8647488944 0.0159872336
N -0.1335807400 1.1204262544 1.1216833636
N -0.1162944600 -0.1181326756 0.5998070436
H 0.5034835900 -1.9829276656 1.5122191936
H -1.2681052800 -1.8581923256 1.1781551536
H -0.8211224100 -2.1511025856 -1.2724168964
H 0.9400071100 -2.2695993056 -0.9422019964
H 0.4992820700 1.4743220744 -2.1734314064
H 0.1716704400 2.9460542244 0.1165483736
