13
Molecule 2235 / 7211 from QM7b dataset
C -2.3611539868 -0.6925394286 -0.2992639223
C -0.8715646768 -0.7024771986 -0.4214053823
C -0.0410649268 0.1992074914 0.1417825277
C 1.4038893732 0.1754845014 0.0135174777
C 2.2352188332 1.0745392214 0.5748399877
H -2.7301217268 -1.6264828386 0.1555717577
H -2.8417449468 -0.6214551486 -1.2888472223
H -2.7125508368 0.1491102614 0.3134465577
H -0.4327474968 -1.5115248186 -1.0182711023
H -0.4685284968 1.0130500514 0.7410615477
H 1.8260675432 -0.6393716686 -0.5861013923
H 1.8519453732 1.9003454314 1.1790898677
H 3.3157328932 1.0110412114 0.4472258577
