15
Molecule 3921 / 7211 from QM7b dataset
C -1.9552314379 0.4872231596 -0.0356741464
C -0.4726915679 0.6667339596 -0.0303797764
O 0.3798300721 -0.4374340704 0.0371217436
C -0.1082939979 -1.7223476204 0.0783950136
C 0.7175707821 -2.7722025204 0.1249917336
N 0.0498953621 1.8373281296 -0.0883364464
N 1.4260824021 1.9474433896 0.0058543236
H -2.4047028879 1.4839179296 -0.0876197464
H -2.3163527779 -0.0106305504 0.8779896536
H -2.3019856079 -0.0988999304 -0.9009199164
H -1.1939484279 -1.8259051404 0.0730033736
H 1.8001037521 -2.6512942404 0.1341874536
H 0.2994169921 -3.7754919304 0.1597069836
H 1.7189339821 2.7999511596 -0.4668361364
H 1.9399273821 1.1279827596 -0.3331076964
