16
Molecule 1683 / 7211 from QM7b dataset
C -2.2584982871 -1.1496325273 0.6491872083
O -0.8327973971 -0.9226149673 0.7619713183
C -0.3690162471 0.1412255327 0.0564279783
O -1.0749868771 0.8762266727 -0.6103323817
C 1.1476316129 0.2565824727 0.1635690583
C 1.7830487529 -0.6893305973 -0.8789132617
N 1.5058036129 1.6693648427 0.0251493083
H -2.4633110971 -2.0238484973 1.2748586683
H -2.5340946071 -1.3450361273 -0.3952608817
H -2.8132628071 -0.2740729073 1.0094336083
H 1.4357521229 -0.0922316873 1.1688604483
H 1.4715513229 -0.4083029073 -1.8955640417
H 1.5024471229 -1.7371515973 -0.6976216817
H 2.8785949429 -0.6169708473 -0.8196032217
H 0.9390088529 2.0772185227 -0.7250314417
H 2.4859680629 1.7528792227 -0.2508540117
