15
Molecule 3439 / 7211 from QM7b dataset
C -3.2602033803 -1.1551281248 0.0166099527
O -1.8384485403 -1.1309882548 0.0156184727
C -1.3525551903 0.2127666952 -0.0067804673
C 0.0998131797 0.2317286752 -0.0066026473
C 1.3172736697 0.3017635652 -0.0070854573
C 2.7337215497 0.3142619352 -0.0074654373
C 3.4994733697 1.4229708152 -0.0085082773
H -3.5592329503 -2.2100768448 0.0343424927
H -3.6769602403 -0.6757265648 -0.8897100673
H -3.6761651503 -0.6457377948 0.9067883427
H -1.7327717103 0.7713961052 0.8749737627
H -1.7321276803 0.7414481452 -0.9071157773
H 3.2147150297 -0.6699029048 -0.0063213673
H 3.0587323797 2.4203957152 -0.0096779873
H 4.5862594597 1.3459288152 -0.0092331773
