17
Molecule 6653 / 7211 from QM7b dataset
C -2.6427662505 -1.4932963551 -0.3502503168
C -1.1683013605 -1.2626636951 -0.2632025768
C -0.5108632905 -0.0978874951 -0.0290618868
C -1.1713697005 1.2352753249 0.1983543032
C 0.9457972595 -0.1302341451 0.0069570232
N 1.6487627595 0.9357650149 0.2135775732
N 3.0100596195 0.7898891749 0.3097408332
H -2.9669219205 -2.2391801451 0.3947022832
H -2.9169459205 -1.9068035651 -1.3352609868
H -3.2337703905 -0.5829445851 -0.1926899368
H -0.5492966505 -2.1564126351 -0.4076386868
H -2.2637303705 1.1757389449 0.1412067232
H -0.8186893405 1.9680455549 -0.5421807268
H -0.8904557605 1.6371421849 1.1829813032
H 1.4314674095 -1.1128805551 -0.1486176168
H 3.4789384395 1.6548206949 0.0483479332
H 3.4026679095 -0.0242670251 -0.1808584068
