17
Molecule 5943 / 7211 from QM7b dataset
C -1.0804183825 -0.5159315761 1.6422719855
C -0.2766725725 -0.4171143361 0.3322579055
C -1.1421071725 -0.7241764361 -0.8624035245
C -0.9102483325 -1.6948421961 -1.7516527345
C 0.3313464675 0.9716561339 0.2070242055
C 1.6631201775 1.2901170039 0.7481251055
O 1.4621382975 1.1252878539 -0.6705544545
H -0.4459102925 -0.2948024461 2.5127184255
H -1.4980117925 -1.5244624861 1.7633025855
H -1.9200415725 0.1962591639 1.6456892355
H 0.5569852275 -1.1394618461 0.3580183055
H -2.0247290525 -0.0837000661 -0.9858000745
H -0.0394105525 -2.3493885261 -1.6660934545
H -1.5779503925 -1.8650264261 -2.5972989345
H -0.3963786225 1.7931345739 0.1370478655
H 2.2456405875 0.4964176039 1.2294904755
H 1.8925789775 2.3104760639 1.0736235455
