15
Molecule 7029 / 7211 from QM7b dataset
C -2.4604585400 -0.0689239850 0.0084124453
C -0.9649387000 0.0444325650 0.1012834353
C -0.2802585900 1.1793077950 -0.1670753647
C 1.2082798600 1.1681881150 0.0166485653
O 1.8007078500 -0.0975824950 -0.4069148347
C 1.1247482500 -1.1821063850 0.0572146253
C -0.1845339300 -1.1539797550 0.4016189553
H -2.7574293900 -0.8137064550 -0.7465262847
H -2.9206536200 0.8927584850 -0.2534406047
H -2.8831498500 -0.4027970750 0.9693996253
H -0.7748644200 2.0952022550 -0.4955409847
H 1.7155738300 1.9343849150 -0.5828097447
H 1.4882298300 1.3103848350 1.0818970953
H 1.7350420800 -2.0867663050 0.0315091553
H -0.6654413600 -2.0703107950 0.7422144453
