17
Molecule 3405 / 7211 from QM7b dataset
N -1.7523927918 -0.1226447368 0.4118923011
C -0.3319719518 -0.4397706868 0.2193744111
C -0.0841407818 -1.1736318568 -1.0746607689
C -0.9956447818 -1.4252494468 -2.0209085589
C 0.4630892582 0.8606279832 0.2308986411
C 1.0044729882 1.4334148132 1.4947708011
N 1.8991446282 0.7373884132 0.5426969511
H -1.8719345818 0.3565728832 1.3072610811
H -2.2931796318 -0.9894346068 0.4689157811
H 0.0995682582 -1.0668327268 1.0301998511
H 0.9516914082 -1.5012918468 -1.2076580089
H -2.0296698718 -1.0908234368 -1.9196696789
H -0.7254036618 -1.9601124068 -2.9323855489
H 0.1579954082 1.5694701232 -0.5461176289
H 0.8535331182 0.9018370832 2.4387278311
H 1.0639365082 2.5211786532 1.5816831711
H 2.4313718082 1.4238857132 0.0000712311
