15
Molecule 3982 / 7211 from QM7b dataset
N -0.8070371218 0.5642338286 3.0158953778
C -1.0229412518 0.4884575386 1.7509870678
N -0.1092700718 -0.0774307714 0.8940931378
C -0.1887875218 -0.0243625214 -0.5360625722
C 0.9035797382 0.7067070686 -1.3605339722
O 0.9913392482 -0.4180776114 -2.2799699122
C 0.2434937082 -1.2608505514 -1.3587697122
H -1.6135120718 0.9852936086 3.4861453878
H -1.9318621318 0.8342426286 1.2262196078
H 0.7691869282 -0.3634536314 1.3265095578
H -1.1966797118 0.3146371086 -0.8127028022
H 1.8435906982 0.8500899186 -0.7956050422
H 0.6304998882 1.6419462586 -1.8725544322
H -0.5378178318 -1.8447876514 -1.8681853522
H 0.9079625682 -1.9406779514 -0.7937121022
