15
Molecule 328 / 7211 from QM7b dataset
O -1.9122185644 -0.2260493631 -0.7555444240
C -0.5252872444 0.1273897769 -0.9363993040
C -0.2410205544 1.3939930569 -0.1533082040
C 0.8071052756 1.2499774169 0.6711085160
C 1.3588592956 -0.1377921331 0.6260231860
C 0.3961056356 -1.2143985031 1.0952253660
C 0.4883797356 -0.8788800031 -0.3757503540
H -2.0791335644 -1.0271876431 -1.2816056440
H -0.3350476244 0.2890622669 -2.0167167740
H -0.8721480044 2.2776036369 -0.2480407540
H 1.1950110356 2.0208373669 1.3392219660
H 2.4328731456 -0.3155349631 0.6961639560
H 0.8201984656 -2.1697035131 1.4079774260
H -0.4958184844 -0.8929717031 1.6353501460
H 0.9269606856 -1.6154482131 -1.0493901640
