13
Molecule 4727 / 7211 from QM7b dataset
C -3.2673718926 0.4467681682 -1.1724763016
C -2.2428163626 0.2293186082 -0.5545427916
C -1.1093799026 -0.0500743518 0.2535670984
N 0.0884720474 0.0652208982 -0.2142841716
N 1.0568388574 -0.2737299318 0.7969108584
C 2.2520926374 -0.8706430918 0.1272729984
C 2.2892534074 0.5390297982 0.5646985984
H -4.1566078026 0.6438710782 -1.7356765116
H -1.2813416226 -0.3687952718 1.2930400784
H 2.1488911774 -1.0608253118 -0.9420628716
H 2.7323175974 -1.6523087218 0.7169580384
H 2.7975867574 0.8256702782 1.4859774484
H 2.2113102374 1.3055563982 -0.2077406016
