17
Molecule 5835 / 7211 from QM7b dataset
C -0.3000383461 1.5254747648 -1.6483040025
N -1.4210085961 0.8113020448 -0.9972928525
C -0.1526164061 0.1002141848 -1.2437196925
C 0.6586981439 -0.3204394052 -0.0408437225
C 0.4662653639 0.4250044148 1.3045694275
C 0.4527620939 -0.9751900752 1.9611069075
N 0.1904174339 -1.5760426152 0.6225890175
H -0.3580225661 1.7547337148 -2.7155736225
H 0.1486638339 2.3105951348 -1.0331276425
H -2.1162689561 0.5335195948 -1.6955991625
H -0.1414207761 -0.6309696252 -2.0608048625
H 1.7285515639 -0.3564905852 -0.3312618325
H -0.5139855061 0.9165715048 1.3394695675
H 1.2571207139 1.1183709848 1.6133077975
H 1.4361409239 -1.2398173652 2.3909803675
H -0.3297760461 -1.1800042352 2.7077739275
H 0.7527098539 -2.4037084352 0.4109088075
