19
Molecule 4110 / 7211 from QM7b dataset
C -0.5592616071 -2.4369996191 -0.4097533297
O -0.8665313771 -1.2335174791 0.2935590603
C 0.2603744029 -0.4012071191 0.4196053603
C 0.5738086529 0.6388291509 -0.6494064997
C -0.2732400271 0.7618225309 -1.8963152897
C 0.0065399529 1.0474750209 0.7039233703
C 0.8322378229 1.8038770409 1.7195813603
H -1.4839109071 -3.0265202091 -0.4517052997
H 0.2171609729 -3.0214711891 0.1183131503
H -0.2083181571 -2.2317416091 -1.4364738797
H 1.1123483729 -0.8819422691 0.9213195003
H 1.6405416929 0.8435629809 -0.7880271997
H -1.2961823071 0.4067715809 -1.7089331397
H 0.1423977529 0.1698903209 -2.7263424197
H -0.3340601271 1.8083184209 -2.2319697997
H -1.0558409171 1.3093149909 0.6716743103
H 1.8794941529 1.4669113409 1.7092069003
H 0.4448282529 1.6579103009 2.7395286203
H 0.8310370529 2.8843531409 1.5091269403
