18
Molecule 2652 / 7211 from QM7b dataset
C -2.4758263742 -0.8604935710 1.2305838469
C -1.1288166442 -1.2123294910 0.6315343469
O -0.3984184442 0.0076150790 0.4221233169
C 0.8408144158 -0.0955991510 -0.1553562431
C 1.4494273658 -1.2410146010 -0.5182970731
C 1.4376275858 1.2785899890 -0.3563729431
N 0.7036456458 2.1636342890 -1.2750938931
H -3.0565433542 -1.7775124210 1.4013971769
H -3.0487872742 -0.2113003510 0.5544347069
H -2.3562072142 -0.3437767810 2.1923500069
H -1.2440986242 -1.7346316210 -0.3350918031
H -0.5495432642 -1.8686019010 1.3055963069
H 1.0142319058 -2.2285931010 -0.3807005631
H 2.4383839058 -1.1876348810 -0.9698766431
H 2.4672109058 1.1631542290 -0.7239059631
H 1.4972010058 1.7860146790 0.6206570169
H 0.6116384858 1.6978976690 -2.1830235031
H -0.2510165342 2.2837047790 -0.9257176331
