13
Molecule 733 / 7211 from QM7b dataset
C -2.1876160217 0.3614508830 -0.0183399888
C -0.6971987717 0.3759013130 0.0019410112
C 0.1668868983 1.4185115130 -0.1176946888
N 1.4951634083 0.9935114130 -0.1834912288
N 1.4648558483 -0.3829489670 0.1433296212
C 0.1196603883 -0.8434430670 0.0862760912
O -0.2067999717 -2.0287545470 0.0931199012
H -2.6014726117 1.3769916230 -0.0643383988
H -2.5828202717 -0.1392159970 0.8775645312
H -2.5603412617 -0.2069693070 -0.8840543188
H -0.0357494817 2.4863525430 -0.1760299688
H 2.1444438183 1.5096465230 0.4183166112
H 2.1598098283 -0.9452299870 -0.3483809588
