15
Molecule 1824 / 7211 from QM7b dataset
C -2.0051588478 -0.2326402230 -1.6370812940
C -1.2558648778 -0.8086438430 -0.6913030340
C -0.6725086278 -0.0877788930 0.4889404160
N 0.7677923622 -0.3553561030 0.6086821160
C 1.6356132322 0.5662233270 -0.1330234040
C 1.5277832722 0.6536882570 1.3535766560
H -2.4215508878 -0.8077711130 -2.4653597340
H -2.2355211178 0.8358034570 -1.6098325340
H -1.0317078578 -1.8789441430 -0.7449090840
H -1.1430089378 -0.4585118430 1.4172400360
H -0.8969175878 0.9985789970 0.4162743260
H 1.1548654922 1.3598044870 -0.7149729240
H 2.5151448222 0.1161825070 -0.5979754540
H 2.3267179822 0.2679598470 1.9908424760
H 0.9782466522 1.5092987770 1.7612620360
