18
Molecule 4013 / 7211 from QM7b dataset
C -2.5331138748 -1.2759738812 0.1177524733
O -1.1268650048 -1.0870397412 0.1224387433
C -0.7724981148 0.2909642988 -0.0059987867
C 0.7323027652 0.4216075588 0.0839247633
N 1.3760850352 -0.0344865012 1.3010915233
C 1.5319772852 0.2377117588 -1.1859459267
C 1.3641969052 1.6175576388 -0.5899262267
H -2.7168289048 -2.3515654312 0.2371002833
H -2.9866135148 -0.9370848512 -0.8338006967
H -3.0210008748 -0.7319505812 0.9494642433
H -1.2546478248 0.8755119188 0.8072071533
H -1.1436847348 0.6923981588 -0.9714073067
H 1.1047936152 -1.0079800812 1.4690431533
H 1.0288845452 0.5058264888 2.0998030833
H 0.9883684252 -0.0009959412 -2.1005124967
H 2.5054375752 -0.2392739312 -1.0788332767
H 2.2253869652 2.0517923588 -0.0823206467
H 0.7150397252 2.3298410888 -1.1017318767
