14
Molecule 3933 / 7211 from QM7b dataset
C -2.1013517421 0.0622849036 -0.1245086243
C -0.5939651421 0.0807713536 -0.0746765243
C 0.0818487179 -1.2224262364 -0.1051714543
C 1.2672009779 -1.5742796364 0.4365459057
N -0.0336701321 1.2581833936 -0.0691479743
N 1.3266419979 1.3744599636 0.0133661157
H -2.4842400721 1.0891145536 -0.1479203643
H -2.5235974721 -0.4534840364 0.7524264257
H -2.4622120621 -0.4730228264 -1.0175443143
H -0.4824583321 -2.0036306964 -0.6297934443
H 1.8604464979 -0.9001967564 1.0548405557
H 1.6353219179 -2.5959631764 0.3334979257
H 1.6138481879 2.2569534236 -0.4066946743
H 1.8696914079 0.5736237036 -0.3414749143
