18
Molecule 4290 / 7211 from QM7b dataset
C -1.8043911088 0.7029201221 0.2475900044
C -1.7000861888 -0.7718884579 -0.2663253956
N -0.2671741888 -0.6907387479 0.0937947244
C 0.9888176112 -1.1509856879 -0.4611053856
C 1.9405891612 -0.0132910679 0.0719461744
C 1.0190511512 1.1746635721 0.5517680244
C -0.2876763588 0.7489220921 -0.1035907756
H -2.4693812388 1.3856528221 -0.2949527556
H -1.9940510788 0.7408504921 1.3281734644
H -1.8868575088 -0.8270264979 -1.3605509156
H -2.2709513488 -1.5563196379 0.2509154644
H 1.2762215212 -2.1478637879 -0.0949240756
H 0.9932978912 -1.1675261079 -1.5736672156
H 2.5601209412 -0.3811435479 0.9002594144
H 2.6201157012 0.3166760721 -0.7261115056
H 0.9276476312 1.1769614421 1.6469494244
H 1.4019032112 2.1503454521 0.2212292244
H -0.2256720088 1.0025211021 -1.1955794756
