14
Molecule 4513 / 7211 from QM7b dataset
O -0.8633689287 -0.2139330770 1.5532732594
C -0.1839415787 -0.4332654070 0.3389609894
C -1.1627676187 -0.7503351670 -0.7734025006
O -2.3641754487 -0.8137418470 -0.5632390006
C 0.6737809213 0.7658472330 -0.0488574606
C 2.0928824913 0.8548577430 0.3815787294
N 1.7584271513 0.4745929030 -1.0083319906
H -1.8116427187 -0.3722541770 1.3425234794
H 0.4962635113 -1.3099140870 0.4093010194
H -0.7279503587 -0.9167234470 -1.7845582706
H 0.1185719113 1.7042520230 -0.1437706506
H 2.5177020913 0.0492761130 0.9854389094
H 2.5041906413 1.8481031330 0.5733435294
H 1.8945045913 1.2738831030 -1.6339067006
