13
Molecule 4492 / 7211 from QM7b dataset
C -1.5378567720 -1.1408551547 0.1686227967
C -0.0021664020 -1.0717913147 0.0966391067
C 0.4741048180 0.3759947153 0.1062582567
C 0.6227989680 1.0563553753 -1.2404464933
O 0.7059190080 0.9616087753 1.1549332467
H -1.8751540320 -2.1862716447 0.1849953367
H -2.0081861320 -0.6513446647 -0.6969029433
H -1.9032234520 -0.6481675747 1.0802792767
H 0.3520708680 -1.5824689647 -0.8127105033
H 0.4338042080 -1.5712779247 0.9731279367
H 1.4897185080 0.6252719453 -1.7661459733
H 0.7764808480 2.1328236453 -1.1104367433
H -0.2541465520 0.8703432553 -1.8781143633
