13
Molecule 1354 / 7211 from QM7b dataset
C -2.0887399784 0.0181317046 -0.2342041836
C -0.5886771184 0.0585449046 -0.0693178736
C 0.0839454916 -1.2330718954 0.1025830664
C 1.3928340816 -1.5102353954 0.2689852964
N -0.0913934884 1.2588244646 -0.1047341936
O 1.3143580416 1.2890131846 0.0490961664
H -2.4862697184 1.0318847946 -0.3558301536
H -2.5629741784 -0.4480235854 0.6430350764
H -2.3651112384 -0.5820870454 -1.1145054736
H -0.6098208484 -2.0810325954 0.0868856264
H 2.1581230216 -0.7407433654 0.2970161864
H 1.7074622016 -2.5491616154 0.3809958564
H 1.4873059916 2.2450707746 -0.0055049236
