17
Molecule 3087 / 7211 from QM7b dataset
C -0.0253255709 -2.6447264638 -0.2872309593
C -0.5789517709 -1.4184247938 0.4396811007
C 0.3374514191 -0.1760182838 0.3623007007
C -0.1642916809 1.0047489362 1.1530222307
C -0.2314852109 2.0929111162 0.3483883007
C 0.2045072091 1.7192905762 -1.0003250393
C 0.5329258091 0.4041706162 -1.0161229293
H -0.7069660909 -3.5009576238 -0.1823751193
H 0.9519797491 -2.9447117338 0.1213077807
H 0.1040734591 -2.4569225838 -1.3627996993
H -0.7361269409 -1.6631964338 1.5027969407
H -1.5653565009 -1.1470036438 0.0307700707
H 1.3322440291 -0.4681418538 0.7605130807
H -0.4268064409 0.9534792462 2.2087952707
H -0.5554842809 3.0920909162 0.6395737307
H 0.2532457391 2.4050327162 -1.8463765493
H 0.9002160591 -0.1613792238 -1.8704859393
