16
Molecule 3715 / 7211 from QM7b dataset
C -2.2054659937 -0.4890471242 0.6652099889
C -0.6959430237 -0.3686273542 0.4585460489
C -0.2385332237 -1.1355132442 -0.8025647711
O 1.1207971863 -1.5195806342 -0.7929635511
N -0.3614841037 1.0724535558 0.4122372189
C 0.8590943763 1.6205270658 0.1905299689
O 1.8912638863 1.0155083758 -0.1131143511
H -2.5380834537 0.0783636858 1.5471329789
H -2.4817110137 -1.5389401042 0.8235924189
H -2.7553438137 -0.1202228242 -0.2143265411
H -0.1654710437 -0.8166478942 1.3171098589
H -0.5015421937 -0.5281202942 -1.6933155011
H -0.8215948337 -2.0683107542 -0.8559408211
H 1.6352202163 -0.6942806342 -0.6168366711
H -1.0976207637 1.7225877658 0.6791598489
H 0.8451342363 2.7269381758 0.3060596989
