11
Molecule 1260 / 7211 from QM7b dataset
C -2.5632520394 -0.2953357552 0.0000087837
C -1.1108395694 -0.2542945052 0.0000812037
C 0.1084804506 -0.2091289352 0.0000500737
C 1.5265788406 -0.2157252952 0.0000032937
C 2.3070933406 0.8830458448 -0.0000673063
H -2.9917863294 0.7177439548 0.0119903737
H -2.9444295394 -0.8327563152 0.8817939637
H -2.9448755394 -0.8118227752 -0.8940266263
H 2.0013690506 -1.2034179152 0.0002556437
H 1.8781660406 1.8857596948 -0.0003119163
H 3.3931901806 0.7931252348 -0.0001577263
