18
Molecule 4323 / 7211 from QM7b dataset
C -0.5457757229 -0.5761257568 1.9416940038
C 0.5919573071 -0.3954512068 0.9159151638
C 0.2055574471 -0.8709038668 -0.5068085762
C -0.9453336029 -0.1065245668 -1.1613486062
N -1.1926192429 -0.6463583568 -2.5091687362
C 1.0928085671 0.9808728732 0.9164787338
C 1.5112943071 2.1215088332 0.9213876038
H -0.1923129029 -0.3451904768 2.9552210838
H -0.9046405229 -1.6154250068 1.9265613838
H -1.3923999129 0.0881906232 1.7230387638
H 1.4310808271 -1.0374821068 1.2398980438
H -0.0576625329 -1.9397337968 -0.4610593862
H 1.0976784671 -0.7899184068 -1.1504990562
H -0.7162232129 0.9771603432 -1.1413171862
H -1.8684313029 -0.2505491268 -0.5775818762
H -0.3958415229 -0.4310500268 -3.1154499962
H -1.9988772229 -0.1773757968 -2.9277690662
H 1.8829147271 3.1256244232 0.9292285038
