15
Molecule 6307 / 7211 from QM7b dataset
C -1.6630919411 -1.1702612735 0.2827051105
C -0.2719736511 -0.5517921035 0.3979692405
C 0.7099750389 -1.2010753835 -0.5742048195
O 1.9131131789 -1.2638043035 -0.4092404495
C -0.2804393011 0.9685512065 0.0818759605
C 0.8947718089 1.7529066665 0.6089004905
O -1.1900621311 1.4687238665 -0.5577085395
H -2.3491309711 -0.7183706435 1.0102894105
H -1.6272873611 -2.2525555835 0.4668310705
H -2.0830908311 -0.9931176735 -0.7160444295
H 0.1649390189 -0.6724038735 1.4021141405
H 0.2296372889 -1.6128091635 -1.4981718395
H 0.7811734589 1.8722059065 1.6979210905
H 0.9298965689 2.7431571265 0.1419080305
H 1.8340027189 1.2045627265 0.4472685405
