20
Molecule 5989 / 7211 from QM7b dataset
C -2.0138546198 -1.5833188912 -0.0705276966
C -0.4784681798 -1.5068919912 -0.1394741466
C 0.0625825402 -2.4459984912 -1.2319218566
C -0.0259210798 -0.0902297612 -0.3755554866
C 0.7414114402 0.6354301988 0.4490940634
C 1.1747480902 2.0487482388 0.1876708134
N 0.7566714102 2.9249301188 1.2977811434
H -2.4086020598 -0.9462887412 0.7333862934
H -2.3463897998 -2.6161723312 0.1126531234
H -2.4646522398 -1.2499232912 -1.0189982666
H -0.0711824798 -1.8362409712 0.8326343034
H -0.3100528698 -2.1467437812 -2.2246040866
H -0.2615676298 -3.4820777212 -1.0517061866
H 1.1609396202 -2.4287992312 -1.2645337866
H -0.3660764698 0.3663227788 -1.3165409866
H 1.0783648402 0.2062863988 1.4004110834
H 0.8076451902 2.3622300588 -0.8106694666
H 2.2776614202 2.0876477088 0.1480333834
H -0.2645618298 2.9897885088 1.3129704134
H 1.1087852902 3.8730239688 1.1467820334
