13
Molecule 2098 / 7211 from QM7b dataset
C -1.1726656321 -2.0290669490 -0.5949467174
C -0.7261645721 -1.4159902790 0.5031288626
C 0.3710974279 -0.3910901990 0.5148990026
O 0.8305890079 -0.0521345090 -0.8096988174
C 0.6936113279 1.3301131410 -0.9090337174
C 0.1573283779 1.8381766610 0.2022301626
O -0.1079459021 0.8428377810 1.1326291626
H -1.9691805221 -2.7712867290 -0.5410942474
H -0.7498487521 -1.8014544790 -1.5744252274
H -1.1387733921 -1.6409457390 1.4906339626
H 1.2416842779 -0.7425906590 1.1064078926
H 1.0084645879 1.7869318210 -1.8391548674
H -0.1127326221 2.8508653610 0.4765241626
