13
Molecule 4797 / 7211 from QM7b dataset
O -2.0453475953 0.7635580169 -0.2951154317
C -0.6437407453 0.6604571569 -0.4153135017
C 0.1419646447 1.6677832269 0.4289931783
O 1.0248969047 0.6169477769 0.9276490383
C 0.1028759547 -0.4166685931 0.4406173883
C 0.7447562247 -1.5256725431 -0.2311778217
C 1.2471005947 -2.4538911431 -0.8320536117
H -2.4585005853 0.2238402069 -0.9908972317
H -0.3142880053 0.6294935169 -1.4654723217
H -0.4765188553 2.1015427569 1.2337218883
H 0.6990874247 2.4571600369 -0.0947604817
H -0.5483807153 -0.7753836631 1.2598328083
H 1.7044662247 -3.2727478331 -1.3490873017
