15
Molecule 5359 / 7211 from QM7b dataset
C -2.0126720996 -0.2755394921 0.3830465044
N -0.5760412096 -0.2805837621 0.2496742144
C 0.1691962704 -1.5008926921 -0.0157074456
C 1.5450190004 -0.9901358721 -0.3336966856
C 1.5447981204 0.3523714179 -0.3295978456
C 0.1905523604 0.8566102379 -0.0244444456
N -0.1321054496 2.1085754079 -0.0332646256
H -2.3324106596 0.6209555179 0.9332704444
H -2.3346320096 -1.1502918621 0.9650044444
H -2.5361987796 -0.2899703921 -0.5913538656
H -0.2558068196 -2.0684165121 -0.8689095656
H 0.1631619004 -2.1801638921 0.8580202744
H 2.3871112804 -1.6501143121 -0.5322928756
H 2.3750653804 1.0248586279 -0.5300572656
H -1.1306255896 2.2427197079 0.1738507944
