17
Molecule 3884 / 7211 from QM7b dataset
C -1.8909615174 -1.7883855066 0.6036822862
N -0.6899493474 -1.5702134466 -0.1776821738
C -0.1174384874 -0.4243666466 -0.1413775038
C -0.4262366374 0.8378296734 0.6694611762
C 0.5545734826 1.8902149734 0.1217246562
C 1.7111796726 1.0474920034 -0.4421635438
N 1.0086912226 -0.1424268066 -0.9091662538
H -1.7479442874 -2.6603464566 1.2635236162
H -2.7301248574 -2.0425262766 -0.0662549738
H -2.2089764374 -0.9373429966 1.2352385362
H -0.2385956674 0.6266554634 1.7350653762
H -1.4775328474 1.1403660834 0.5793194062
H 0.0823446026 2.4535978834 -0.6961349338
H 0.8910460226 2.6080872134 0.8807034562
H 2.2371311626 1.5485423634 -1.2677065438
H 2.4529049626 0.8167802834 0.3483251062
H 1.5218551426 -0.9420387666 -1.2721024838
