18
Molecule 5892 / 7211 from QM7b dataset
C -1.9384952987 -1.4137394500 0.0177798187
C -0.4231216887 -1.2108117400 0.0121583187
C 0.0519726813 0.2798025900 0.0130416287
C -0.4445865087 1.0257334500 -1.2433277513
N -0.3883370487 1.0575111800 1.1963294287
C 1.5245023413 0.2673317600 0.0119090587
C 2.7371554813 0.2145873400 0.0026737087
H -2.1750725587 -2.4855685800 0.0747076787
H -2.4150052587 -1.0225391200 -0.8923729813
H -2.4161631887 -0.9343545000 0.8861709787
H 0.0166568813 -1.7100591800 -0.8664255013
H 0.0201754513 -1.6969840800 0.8963621587
H -0.1361828287 0.5004923100 -2.1568542513
H -0.0310245787 2.0412317100 -1.2558825713
H -1.5416936287 1.0992266700 -1.2358315113
H -0.0446206587 0.6047438200 2.0479639787
H -1.4108585887 1.0394457000 1.2438628087
H 3.8075862513 0.1843632900 -0.0014154813
