19
Molecule 3152 / 7211 from QM7b dataset
C -0.7172326378 -2.3720808176 -0.8198708025
C -1.1788314478 -0.9898896176 -0.3463026225
C -0.0484383378 -0.0983300776 0.1503346675
C 0.6968911322 -0.5914904776 1.3712919875
O 0.7899330122 0.4361339924 -0.9183331925
C -0.0871630878 1.3407275024 -0.2060818425
C 0.5468860022 2.4616507924 0.5748912675
H -1.5586191878 -2.9370378476 -1.2448818225
H -0.3001272678 -2.9730655076 0.0007594975
H 0.0532157122 -2.2757929176 -1.5983904325
H -1.9238958378 -1.0954432776 0.4613453375
H -1.6822871878 -0.4701296876 -1.1761733825
H 1.5047163522 0.0909336324 1.6571995275
H 1.1474335022 -1.5750803176 1.1764303875
H 0.0090776922 -0.6989859576 2.2243550275
H -0.9549117178 1.6551904324 -0.8055194725
H 1.4079511022 2.1242924024 1.1635551775
H -0.1897577378 2.9159924124 1.2547721275
H 0.8950707422 3.2465308724 -0.1123623625
