15
Molecule 897 / 7211 from QM7b dataset
C -0.8681665854 0.0000775336 -1.1511064531
C -0.6083613754 0.9965364336 0.0015682769
N -1.3717723054 -0.0000513864 0.8648378969
C -0.6083705454 -0.9965329664 0.0014374169
C 0.8736687946 -0.7468732564 0.4055845669
N 1.7968803846 0.0000278036 -0.4677243531
C 0.8736748246 0.7468105836 0.4056854569
H -1.9247744454 0.0001013036 -1.4357444731
H -0.2303881354 0.0001314536 -2.0443465631
H -0.9692032554 2.0326181436 -0.0127426631
H -1.0111596054 -0.0001151664 1.8318267569
H -0.9692213554 -2.0326104064 -0.0130053931
H 1.3340394846 -1.3649083664 1.1794394069
H 1.4862389946 0.0000994836 -1.4438675431
H 1.3340410846 1.3647386636 1.1796300769
