18
Molecule 4106 / 7211 from QM7b dataset
C -2.5750754148 0.8342554545 0.5070346528
N -1.2578597948 0.2962352945 0.8001607328
C -0.2913088848 0.1382801545 -0.1615994172
O -0.4707769248 0.4379530645 -1.3438879872
C 1.0377307752 -0.4427132655 0.3382550928
C 1.3109582952 -1.7748096655 -0.3755457472
C 2.1637779652 0.5704156645 0.0846156628
H -2.7638238348 1.7603346745 1.0703824628
H -3.3660984548 0.1059764345 0.7403969928
H -2.5991043548 1.0571997845 -0.5663582272
H -1.0342563648 0.0295683945 1.7534385128
H 0.9671344452 -0.6300808955 1.4248709328
H 1.3416861552 -1.6166015055 -1.4626101972
H 0.5279897252 -2.5165599855 -0.1613813472
H 2.2759095752 -2.1921637755 -0.0539504872
H 2.2230900352 0.8024065545 -0.9878776072
H 3.1305137552 0.1591668545 0.4087454728
H 1.9916968652 1.5109118345 0.6277607928
