15
Molecule 2332 / 7211 from QM7b dataset
C -2.5830289770 -0.4327963961 0.0591502815
C -1.0833343770 -0.4818649661 -0.0369299785
N -0.5336133870 -1.6863557761 -0.3281934185
C -0.3095805470 0.6381772839 0.1767622315
C 1.1377081130 0.6080533339 0.0636515915
N 1.7974408930 1.8132123339 0.2633491315
O 1.7999584730 -0.4125520761 -0.2380140685
H -2.9308797570 0.5754806839 0.3097351315
H -2.9454006670 -1.1285469361 0.8312753815
H -3.0419351270 -0.7289750761 -0.8969418585
H -1.1152747970 -2.4686103661 -0.5990841385
H 0.4899865430 -1.6862779961 -0.4526811585
H -0.8114391670 1.5742746139 0.4192144615
H 1.3346007130 2.5500979039 0.7855716115
H 2.8032966630 1.7355623439 0.3851283715
