14
Molecule 775 / 7211 from QM7b dataset
C -1.7120344084 0.1944333756 0.0802679308
N -0.2571340684 0.1867586056 0.0164411208
C 0.3967183316 -1.0382748344 -0.0342587892
C -0.1859439984 -2.2524291644 -0.0328102092
C 0.4333473416 1.4063257156 0.0061178508
N 1.6871908816 1.6647338356 -0.0485711792
H -2.0642304284 1.2310972456 0.1165018108
H -2.0656057384 -0.3320502644 0.9806896508
H -2.1441187584 -0.2961817844 -0.8060612792
H 1.4836711316 -0.9586583344 -0.0777189192
H -1.2636824884 -2.4001166044 0.0089220808
H 0.4412798216 -3.1399455144 -0.0752431092
H -0.2628972284 2.2547037756 0.0549028108
H 2.2726624016 0.8203738356 -0.0929833392
