15
Molecule 3027 / 7211 from QM7b dataset
C -2.3304096950 0.2317723309 -0.7297827033
C -0.8093129350 0.1961809009 -0.7751937233
C -0.1279293950 1.3834411409 -0.0592162933
N 1.1567797950 0.8006699609 0.3181805467
C 1.0294219950 -0.5829245791 0.4813361567
O 1.8533819250 -1.3409836991 0.9746643867
N -0.2259899450 -0.9263171091 -0.0321682033
H -2.7631643350 -0.6404859191 -1.2397400233
H -2.7082387750 1.1320642009 -1.2364735133
H -2.6856208850 0.2352209109 0.3103169367
H -0.4710203550 0.1787915409 -1.8304461033
H -0.7264473450 1.6861490109 0.8211698467
H -0.0096654850 2.2495811609 -0.7246957133
H 1.7622554750 1.2703980209 0.9857771267
H -0.3113024650 -1.8751380591 -0.3881706733
