17
Molecule 5435 / 7211 from QM7b dataset
C -1.6781579633 0.4767519472 -1.5708462457
C -0.1724554233 0.3609056072 -1.2710087657
C 0.2124589767 -0.9207999328 -0.5076672157
N 0.1579344867 -0.4829733228 0.9025136443
C 0.9176272967 -1.2650013628 1.8623502943
N 0.4260364667 0.8820632872 0.9488829343
C 0.2653400367 1.3789872272 -0.2342144157
H -1.9959075733 -0.2992059328 -2.2827903857
H -1.9169119533 1.4556819272 -2.0104570357
H -2.2664244633 0.3645406072 -0.6490100657
H 0.3944708667 0.4548610272 -2.2095927957
H 1.2452329767 -1.2362990428 -0.7646116357
H -0.4712925733 -1.7632974128 -0.6852840657
H 0.4908027167 -2.2756135628 1.9236646743
H 0.8400189567 -0.7870906928 2.8459860443
H 1.9889978467 -1.3483250228 1.5876867943
H 0.3343389867 2.4560574372 -0.3870494857
