17
Molecule 5079 / 7211 from QM7b dataset
C -1.5226638992 -0.6220424364 1.4704201736
C -0.7144257992 -1.2827791164 0.3538915136
N -0.1261554392 -0.3491500664 -0.6213976964
O -1.1930458592 0.3571601836 -1.2842969264
C 0.9023917208 0.5385720136 -0.2046123064
C 1.9824791608 -0.1113278164 0.6267374636
N 1.0152940708 1.7677798436 -0.5543689564
H -1.9503762692 -1.3887456764 2.1319595336
H -2.3471986392 -0.0305148864 1.0519994936
H -0.8962760492 0.0450535036 2.0798918336
H -1.3443376492 -1.9789035764 -0.2191962064
H 0.1172300408 -1.8738312764 0.7621091336
H -1.1075133892 0.0488572436 -2.2057085464
H 1.6406652608 -0.3089235064 1.6535536636
H 2.8266760908 0.5842190636 0.6715091736
H 2.3152011208 -1.0634154064 0.1901425536
H 0.1796388408 2.0439787436 -1.0901397164
