20
Molecule 3222 / 7211 from QM7b dataset
C -2.5356369582 0.6074472911 -1.9337161953
C -1.6980872882 -0.5527603389 -1.4297195653
O -0.5412616282 -0.0364288489 -0.7735267653
C 0.2974271018 -1.0715377589 -0.2595400053
C 1.4559526818 -0.4286080989 0.4796075347
N 0.9861807618 0.3122299711 1.6466239047
C 2.0580660618 1.0416161611 2.3168721547
H -3.4290151282 0.2320786911 -2.4519955953
H -1.9603956382 1.2253531311 -2.6369885353
H -2.8615515782 1.2439067011 -1.0992749653
H -1.3893731382 -1.2061688389 -2.2711297253
H -2.2800816082 -1.1792678289 -0.7240136853
H 0.6787944918 -1.7014401589 -1.0879144253
H -0.2791461182 -1.7162986389 0.4327367447
H 2.0298546918 0.2039056311 -0.2346404953
H 2.1370051618 -1.2283165489 0.8186560747
H 0.2691083918 0.9696710011 1.3298781247
H 2.6363756318 1.7160628311 1.6490757447
H 2.7692534118 0.3265621711 2.7604356947
H 1.6396695318 1.6428293211 3.1359982947
