13
Molecule 92 / 7211 from QM7b dataset
O -1.6700281817 0.2307296639 1.7094783867
C -0.4546275917 0.0350294839 1.0267713967
C -0.3413044217 0.8106756139 -0.2487638033
N 1.0128568583 1.0009226239 -0.7188274033
C 1.5163070883 -0.2633481861 -1.0153666033
N 0.7399255883 -1.2737817561 -0.7855481533
C -0.4972417217 -0.7409558161 -0.2797647333
H -1.9319865417 -0.6241505261 2.0965685267
H 0.4465184683 -0.0650039861 1.6453413267
H -1.1085822917 1.5338308739 -0.5237381533
H 1.2352196683 1.7895478039 -1.3219505333
H 2.5338409283 -0.3595544261 -1.3984243533
H -1.4230620217 -1.2588996961 -0.5402525533
