15
Molecule 2191 / 7211 from QM7b dataset
O 0.2736579193 -1.7129384450 -0.8240367192
C -0.3111048407 -0.5550119450 -0.1962302092
C -0.7525752607 -0.9409914550 1.1453056508
C -1.1311203907 -1.2145573750 2.2644040508
C 0.6591851793 0.6127697950 -0.1546992792
C 0.8160345893 1.4684790350 -1.3949768892
C 0.1362638993 2.0251173050 -0.1662378392
H 0.7071659693 -1.3866615450 -1.6337903192
H -1.2099834307 -0.2342750150 -0.7655241492
H -1.4624251707 -1.4691748550 3.2503667708
H 1.5576226693 0.4166430950 0.4345091508
H 0.1844144793 1.2427904450 -2.2570978292
H 1.8138076293 1.8283730350 -1.6463760792
H 0.6653415393 2.7678110150 0.4302276108
H -0.9453060907 2.1631692250 -0.2054143092
