15
Molecule 4039 / 7211 from QM7b dataset
C -2.6629970663 0.5129728316 0.8595482317
C -1.3351515163 0.6712096416 0.9507113317
C -0.3983009563 -0.0149748684 0.0080356517
O -0.8037042363 -0.7467923384 -0.8968729683
C 1.0560112037 0.2349639816 0.2251432817
C 2.0196080837 -0.9056000184 -0.0986647683
C 1.9552113937 0.2690960516 -1.0099392083
H -3.3497246063 1.0110535916 1.5443090617
H -3.0792399763 -0.1302999684 0.0806628617
H -0.8975158363 1.3096963916 1.7234591917
H 1.3246253337 0.8932652516 1.0522463817
H 1.5415259637 -1.8258059384 -0.4362100383
H 2.8795873937 -1.0206146984 0.5606853617
H 2.7689253637 0.9940516016 -0.9997140583
H 1.4351634037 0.1369867616 -1.9594621383
