13
Molecule 2348 / 7211 from QM7b dataset
N -0.4129818873 -2.1855294025 0.0296165188
C -1.2062385373 -1.0518473425 -0.0856831812
N -2.5011844773 -1.0051860325 -0.1121720512
C -0.5137444373 0.2503577075 -0.1084627112
C 0.8006040927 0.4788039875 0.0981826688
C 1.3429265527 1.8422879875 0.0391346488
O 2.5235965627 2.1188841375 0.2045501388
H 0.5335220327 -2.1279082225 -0.3365600112
H -0.8681737473 -3.0731468325 -0.1626514812
H -2.9125275973 -1.9493334325 -0.0738396612
H -1.1881296873 1.0892108075 -0.3008597112
H 1.5192394927 -0.3114318125 0.3322577888
H 0.5851755327 2.6389303975 -0.1758878612
