15
Molecule 3747 / 7211 from QM7b dataset
C -1.9705261509 -1.5650509487 0.7345442577
C -0.4613090509 -1.3598765487 0.5515861277
O -0.0348155709 -1.9048904587 -0.6868783323
C -0.0854489609 0.0851510413 0.6876158677
N 0.5714278791 0.6465861213 -0.2623276923
N 0.8627277091 2.0050334313 0.0015991577
C 1.4639714291 2.5639856213 -0.9842884923
H -2.3008779909 -1.2209960287 1.7252959277
H -2.1997048709 -2.6341607387 0.6415382477
H -2.5263230609 -1.0197198787 -0.0403446923
H 0.0562945591 -1.8911751387 1.3809769577
H 0.4591743791 -1.1814310287 -1.1321499023
H -0.3711373509 0.6366190813 1.5956696377
H 1.7337144091 3.6170519013 -0.8760508623
H 1.7081717791 2.0263436413 -1.9115554823
