16
Molecule 5472 / 7211 from QM7b dataset
C -0.2520269140 1.6048816512 -1.5128464846
N -1.3549261640 0.7533729312 -1.0144594746
C -0.0249543640 0.1559493712 -1.2581328246
C 0.7306246760 -0.3535344688 -0.0555491146
C 0.5307775060 0.3377176512 1.3106302554
O 0.2182607760 -0.9324660288 1.9565438454
C 0.1786807660 -1.6046921788 0.6665840554
H -0.2716853540 1.9494252812 -2.5497835746
H 0.1096773760 2.3422503012 -0.7907806946
H -1.9900204740 0.5206028412 -1.7830805446
H 0.0825480360 -0.4705483688 -2.1519090646
H 1.7948418460 -0.4619488488 -0.3136867946
H -0.3326578040 1.0226537412 1.3399965954
H 1.4161474560 0.8136929812 1.7599315654
H 0.8066050460 -2.5099578088 0.6562498454
H -0.8556692040 -1.8619845688 0.3778129054
