17
Molecule 5250 / 7211 from QM7b dataset
C -1.1990794642 -0.3010666037 1.3053203105
C 0.1262951258 0.0930036463 0.6454183505
N 0.1776404658 -0.2720319437 -0.7770899595
C 0.5601211158 -1.5260178537 -1.2085604095
N 0.4047062558 -2.0847617637 -2.3559794195
C 0.4962476258 1.5524171763 0.7790542405
C -0.2118977342 2.4956768763 1.4092946805
H -1.1838270442 -0.0961902137 2.3851561505
H -1.3829698942 -1.3738588337 1.1612873505
H -2.0408482042 0.2506627863 0.8609798305
H 0.9376475158 -0.4891942237 1.1212780205
H -0.4419534742 0.2562935263 -1.3908524195
H 1.1108650758 -2.0822318337 -0.4335893095
H -0.1246817842 -1.4789305137 -3.0019255495
H 1.4363770758 1.8211732163 0.2860679005
H -1.1562116242 2.2782962763 1.9115837905
H 0.1390552958 3.5274563163 1.4483368505
