17
Molecule 6063 / 7211 from QM7b dataset
C -1.1602917362 -2.0027720360 0.5394816375
N -0.6527134662 -1.0990236060 -0.5000081225
N -0.3801718262 0.2009905740 -0.0299648025
C -1.4759685262 1.0553227940 0.4120899475
C 0.9154029538 0.6951057240 -0.1027439625
C 1.9680695938 -0.2522484860 -0.6455085225
O 1.1822721038 1.8408190340 0.2642247775
H -1.3608572262 -2.9753790460 0.0697030875
H -2.0846978062 -1.6609811060 1.0405176875
H -0.3815875562 -2.1439770760 1.3016403475
H -1.3324098362 -1.0271113860 -1.2651321425
H -1.9826557462 0.6358345940 1.2938244175
H -2.2139354962 1.1851761140 -0.3971180725
H -1.0462259362 2.0286510240 0.6732197275
H 2.0352489438 -1.1682999360 -0.0439071025
H 2.9256537138 0.2776551740 -0.6258538725
H 1.7302134538 -0.5643373760 -1.6707964225
