14
Molecule 4974 / 7211 from QM7b dataset
N -0.9753000726 -2.1927421519 -1.9766514137
C -0.6569017026 -1.7484374519 -0.9460556537
C -0.2498389826 -1.1501817319 0.3198580063
C 0.5609177574 0.1355826981 0.1096111763
C -0.1838106426 1.4082456781 -0.3390997437
C 0.3811133074 2.0263993781 0.9530546963
O 0.9151416874 0.7343955781 1.3860895463
H 0.3590830674 -1.8733844219 0.8845610063
H -1.1436404326 -0.9291870519 0.9236363663
H 1.4621694274 -0.0909072819 -0.4872788337
H -1.2760219826 1.3010412081 -0.3513232937
H 0.1488314374 1.8526730681 -1.2835695037
H 1.1913767274 2.7578281981 0.8006373163
H -0.3447096526 2.4263152981 1.6769695763
