15
Molecule 4614 / 7211 from QM7b dataset
C -2.0796891573 -0.0101720370 -0.6593326876
C -0.5711221573 0.1904569730 -0.8657537476
C 0.0167874927 1.3425517230 -0.0748594376
N 1.0602346027 1.0842019830 0.6274779424
N 1.4622838527 -0.2904185370 0.4052559424
C 0.4850021827 -1.1886427370 1.0736375824
C 0.3474311827 -0.9235807370 -0.3868590176
H -2.4373120773 -0.8747026370 -1.2356460176
H -2.6452313773 0.8712959130 -0.9946835276
H -2.3157330173 -0.1853537670 0.3997524624
H -0.3908681973 0.3634862930 -1.9437280276
H -0.4109361873 2.3494866230 -0.0535188776
H 0.8966643427 -2.1442969570 1.4041545624
H -0.2092833773 -0.7076762270 1.7663749424
H 0.6646134427 -1.6924024770 -1.0928388576
