16
Molecule 6884 / 7211 from QM7b dataset
C -2.2745825117 -0.1916130315 -0.2961936089
C -0.7937219917 -0.4250718015 -0.1774273389
C -0.3559234717 -1.8427562015 -0.4215114189
C 0.0435732283 0.5976716785 0.1287207611
C 1.4845185783 0.5468085485 0.2802305211
C 2.2454284983 1.6167399285 0.5880707811
H -2.5414805317 0.8568647585 -0.1104012589
H -2.8320103617 -0.8218378715 0.4174787711
H -2.6386286417 -0.4682216115 -1.3002752889
H -0.8560983217 -2.5266581215 0.2844532711
H 0.7254928283 -1.9900825715 -0.3259372989
H -0.6559201317 -2.1697124615 -1.4311924789
H -0.4064771017 1.5858091585 0.2826820011
H 1.9817233283 -0.4172357615 0.1356944311
H 1.8002744383 2.6027566485 0.7429538311
H 3.3273705183 1.5376431085 0.6932058411
