16
Molecule 2947 / 7211 from QM7b dataset
C -2.1953574635 -1.3057725242 -0.0754945784
C -0.6705581035 -1.1820395542 -0.0427270184
C -0.1868275035 0.2687620158 0.0251619416
C 1.3351350665 0.4045527758 0.0376891416
N 1.7308306265 1.8178118058 0.1512776116
H -2.5131152635 -2.3573003842 -0.1246247184
H -2.6176384735 -0.7883017042 -0.9506929184
H -2.6502155935 -0.8606932742 0.8226451116
H -0.2435403735 -1.6698095242 -0.9361306984
H -0.2758551135 -1.7376074542 0.8256249116
H -0.5901867335 0.7630072958 0.9247144216
H -0.5901602435 0.8261247558 -0.8406863184
H 1.7495521265 -0.1079006942 -0.8561566484
H 1.7383838865 -0.1249891442 0.9174270116
H 1.4323159165 2.3251164058 -0.6868732584
H 2.7502935065 1.8946548058 0.1780329016
