15
Molecule 265 / 7211 from QM7b dataset
O -1.9058760364 -0.4666253711 0.8457953079
C -0.5053161864 -0.3395377711 0.7112268479
C 0.0027027936 -0.8001757311 -0.6159663321
O -0.9091288064 -1.2756676211 -1.5573341021
C 0.0474964136 0.7046007089 -0.2543997221
C 1.3333949736 1.3860289189 -0.0131125721
C 2.3275021136 0.9670226689 0.7890524279
H -2.2479110064 0.3379194089 1.2733313279
H 0.0702675636 -0.5513551511 1.6194553179
H 0.9740394736 -1.2990954811 -0.6673846021
H -1.7881428464 -1.2304698411 -1.1279110721
H -0.7218246864 1.2782475489 -0.7775738721
H 1.4814912136 2.3094344789 -0.5821566721
H 2.2629414636 0.0519641589 1.3827217779
H 3.2544969236 1.5340660489 0.8710242479
