16
Molecule 2206 / 7211 from QM7b dataset
C -1.9161360318 -1.0944806575 -0.0622783014
N -0.4941098918 -1.3301967375 0.1397767286
C -0.0262968118 -2.7036972975 0.0179169886
C 0.3848334482 -0.2959862275 0.1031978786
C 0.1122013482 1.0375085725 -0.0443901614
C 1.1993926982 1.9885360225 0.0056594186
O 1.0947910582 3.2095240325 -0.1176179814
H -2.2433610418 -0.2386605775 0.5430807486
H -2.4765837018 -1.9815462175 0.2574896486
H -2.1533901118 -0.8879546475 -1.1208680214
H -0.5874398718 -3.3574871275 0.7017052086
H 1.0364266482 -2.7539315075 0.2831390486
H -0.1474785618 -3.0878699475 -1.0103258014
H 1.4305616882 -0.5966390275 0.2294177486
H -0.8929753318 1.4266588225 -0.2102884914
H 2.2107131582 1.5213326625 0.1685217286
