17
Molecule 5693 / 7211 from QM7b dataset
C -2.6185139496 -0.5987257979 0.1342494581
C -1.1417170696 -0.9153157979 0.1625312681
C -0.4596163696 -1.5497842379 -1.0282889219
C -0.1760325496 -0.1090421179 -0.6695880719
N 1.1219905004 0.1778225221 -0.1201523519
N 1.1819043304 1.2320020521 0.7418864481
C 2.3110875704 1.8273647921 0.9052600781
H -2.8632284496 0.2081019221 0.8408602381
H -3.2187041296 -1.4807676879 0.4037106081
H -2.9372103696 -0.2758618779 -0.8681076019
H -0.7399665596 -1.2098482479 1.1344941281
H -1.0522692296 -1.7362815279 -1.9251589319
H 0.3328333304 -2.2738677479 -0.8363885019
H -0.6150870796 0.6616431121 -1.3163329619
H 1.8927538204 0.1222327321 -0.8001675019
H 2.3571984204 2.6307272721 1.6407027081
H 3.2251706404 1.5581689921 0.3492662781
