15
Molecule 4533 / 7211 from QM7b dataset
C -2.2641589075 0.1307814246 0.6808115388
C -0.9406269975 0.0443990146 0.4949194688
C -0.1303885575 -1.2276835154 0.4885755788
C 0.9183822925 -1.1880903354 -0.6256504112
O 1.6728601125 0.0314581846 -0.5319974812
C 0.8082091925 1.1288509646 -0.6620198312
O -0.1867243775 1.2032589046 0.3726478488
H -2.7630279975 1.0989441946 0.6942252088
H -2.8534687275 -0.7675508854 0.8565855588
H -0.7896968875 -2.0993287954 0.3743268688
H 0.3953909925 -1.3151677654 1.4539826088
H 1.6421421425 -2.0085889154 -0.5364498512
H 0.4339025025 -1.2467336454 -1.6202494812
H 1.4110046125 2.0391798746 -0.5665060312
H 0.2861653525 1.0919639046 -1.6409358912
