11
Molecule 1326 / 7211 from QM7b dataset
C 0.2099193748 -1.3162638778 0.1700943045
O -0.9919718652 -0.7904094578 -0.4585179755
N -1.3441188352 0.5088137722 -0.0697214755
C -0.3544401952 1.2858719422 0.2631478945
C 1.0450866848 0.9366732922 0.0912303845
C 1.3521090648 -0.3678290178 -0.0314945655
H 0.3618763048 -2.2902261378 -0.3115726155
H -0.0026472752 -1.4773362678 1.2468752745
H -0.6644389852 2.2936707822 0.5479280345
H 1.7793850248 1.7350085322 -0.0217507955
H 2.3543821248 -0.7302516878 -0.2631538755
