20
Molecule 5195 / 7211 from QM7b dataset
C -2.3037940126 -0.7060198301 0.3682904682
C -0.8225949026 -0.9041429601 0.0173676982
C -0.6594692026 -1.6679119901 -1.3039840118
C -0.0834871226 0.4233691399 -0.0237105718
C 0.3905306274 1.0813619499 1.2608225182
C 1.3975205574 0.5121431499 0.2990660482
N 2.3345300874 1.3985419199 -0.3627122818
H -2.4185805526 -0.1698235301 1.3215124682
H -2.8281616326 -1.6698549001 0.4524133682
H -2.8126139126 -0.1162968901 -0.4112746118
H -0.3619117026 -1.5101093801 0.8207332382
H -1.1012633226 -1.1003397901 -2.1389632818
H -1.1609731826 -2.6465314701 -1.2651755118
H 0.4017032774 -1.8384105301 -1.5376130818
H -0.4308042326 1.1146808599 -0.8014200518
H 0.2192338874 0.5576524099 2.2035724682
H 0.3258766774 2.1691138599 1.3371818682
H 1.8657296374 -0.4284492601 0.6087276782
H 1.9380717674 2.3378976999 -0.4387243918
H 2.5097470174 1.0778807299 -1.3190970818
