17
Molecule 3488 / 7211 from QM7b dataset
C -3.2685902132 -1.3000121430 -0.0301748193
N -1.8618518632 -1.1677004630 0.3445050407
C -1.3267667732 0.1658053470 0.0575200807
C 0.0880513468 0.2748487070 0.5338138907
N 1.0109200468 0.5646742670 -0.3100891193
O 2.2726792868 0.6348690170 0.3144348807
C 3.2561499968 0.9447128570 -0.6797440093
H -3.5956599832 -2.3350316930 0.1387206607
H -3.4871018232 -1.0318026430 -1.0851760393
H -3.8803393632 -0.6489281430 0.6133924007
H -1.3058996232 -1.8574943430 -0.1670120993
H -1.9437536932 0.8928030070 0.6172629507
H -1.3728953132 0.4558135270 -1.0124111893
H 0.3121523668 0.0867743470 1.5926506107
H 4.2063478268 1.0111379670 -0.1359207193
H 3.0345096068 1.9063015270 -1.1666724193
H 3.3146622768 0.1505290770 -1.4397155093
