17
Molecule 5917 / 7211 from QM7b dataset
C -2.5429791162 -1.0397398350 -1.5143321643
O -1.1728421962 -0.9641619150 -1.1509546943
C -0.9963744462 -1.0353311050 0.2629660057
C 0.4918922138 -0.9107043050 0.5851954957
C 1.0702321138 0.4242699150 0.2259371957
N 1.5816285438 1.1776361950 1.1336582157
N 2.0154073338 2.4329210650 0.7645733057
H -2.5927152262 -0.9872191450 -2.6094100143
H -3.1241650462 -0.2013667550 -1.0851070643
H -3.0002112362 -1.9900660750 -1.1776222143
H -1.3861849162 -2.0014988450 0.6435369657
H -1.5650935162 -0.2229233150 0.7586930857
H 1.0233788738 -1.7112724650 0.0416921557
H 0.6403312438 -1.0768651450 1.6619810357
H 1.0246006638 0.7386669950 -0.8323142543
H 2.2822599338 2.5253876850 -0.2242453543
H 2.7646610638 2.7355835450 1.3842133657
