13
Molecule 215 / 7211 from QM7b dataset
C -2.6044153800 0.2826035248 -0.0083969065
C -1.4610417100 0.1502087848 -0.3929115165
C -0.0778742000 -0.0144032952 -0.8828418965
O 0.7672497600 1.0461754648 -0.4531030865
C 1.1817375300 0.6745332548 0.8756932935
C 1.0189146200 -0.8664600052 0.9151779235
O 0.5182087900 -1.2099173852 -0.3920772565
H -3.6126872200 0.4019751248 0.3329359035
H -0.0550683600 -0.0459825552 -1.9827410065
H 2.2208141200 1.0083696748 0.9952914735
H 0.5471557200 1.1669806348 1.6307018335
H 1.9671112700 -1.4033610152 1.0496071335
H 0.3050809100 -1.1769400852 1.6953220235
