17
Molecule 5975 / 7211 from QM7b dataset
C -3.3911638830 -0.7879441461 0.7829035922
C -1.8937004330 -0.8297221361 0.7674307822
C -1.1174552430 -0.4083845261 -0.2405702378
C 0.3818647170 -0.4547973361 -0.2508367478
C 1.0117114270 0.9570153339 -0.3643522178
C 2.4673579370 0.9309725339 -0.4238853978
C 3.6796960770 0.8779319339 -0.4694942678
H -3.8157388230 -1.7980079961 0.9003765222
H -3.7938014930 -0.3533314561 -0.1426852578
H -3.7636909730 -0.1930994561 1.6323571122
H -1.4095767730 -1.2480042361 1.6591782322
H -1.5981574030 0.0116377639 -1.1343673478
H 0.7377733570 -1.0556587961 -1.1046417778
H 0.7550119270 -0.9444438061 0.6614238322
H 0.6891232370 1.5671081439 0.4955467022
H 0.6201993170 1.4620201039 -1.2638959078
H 4.7489940370 0.8413497939 -0.5104651378
