16
Molecule 341 / 7211 from QM7b dataset
C -1.9848823502 -1.3358579983 -0.1367558170
C -0.4861952902 -1.0650717683 -0.2417551870
C -0.0614279102 0.3842672617 -0.2429074570
C -0.9090474302 1.4256461817 -0.2406319270
C 1.4316026698 0.6230505317 -0.2331760170
O 2.0665062098 0.1288174817 0.9615416430
H -2.1807906202 -2.4170868783 -0.1377823470
H -2.5375866602 -0.8978153783 -0.9810450970
H -2.4045166202 -0.9213472083 0.7919641930
H -0.0876444202 -1.5299174883 -1.1629733970
H 0.0499593698 -1.5715320383 0.5789965930
H -1.9924419502 1.2981479917 -0.2403977770
H -0.5340112902 2.4515417117 -0.2487073570
H 1.6429677298 1.6976093317 -0.3774334470
H 1.9154237598 0.0705506917 -1.0548398870
H 1.6562928898 0.5971041617 1.7112438130
