18
Molecule 3969 / 7211 from QM7b dataset
C -2.5549805200 -1.2419772331 -0.3976593829
N -1.1744736800 -1.0701157431 0.0518663571
C -0.6709319000 0.3105924269 -0.1246087629
C -1.2028789300 1.2303055769 0.9887896371
C 0.7932569500 0.3025042169 -0.1512660129
C 2.0090552300 0.2943243469 -0.1784961529
C 3.4643515600 0.2897222169 -0.2070264829
H -2.8099911100 -2.3099653431 -0.3695270529
H -2.7479080500 -0.8630344331 -1.4245192829
H -3.2465012000 -0.7263493531 0.2847880671
H -0.5655715700 -1.6947320031 -0.4803145229
H -1.0167475800 0.7281797669 -1.0996342929
H -0.8635229300 0.8643136969 1.9667789471
H -2.3011634300 1.2519018669 0.9808865971
H -0.8401503500 2.2562769869 0.8427173271
H 3.8619137600 1.3157017469 -0.2021453729
H 3.8458890700 -0.2116685631 -1.1090884929
H 3.8778348100 -0.2326434731 0.6685965271
