17
Molecule 4116 / 7211 from QM7b dataset
C -0.5165714703 -2.4206758900 -0.4583625549
O -0.8956474703 -1.2263022900 0.2289867451
C 0.2052316397 -0.3958748400 0.4835348151
C 0.6645207097 0.6515354800 -0.5470057149
C -0.0036434703 0.8046499200 -1.8951250049
C -0.0640718003 1.0561061400 0.7162063551
O 0.5214273897 1.7995529400 1.7633907951
H -1.4345842603 -3.0003433900 -0.6170884349
H 0.1894069597 -3.0205036100 0.1446797851
H -0.0499205803 -2.1983764700 -1.4335296649
H 1.0010840597 -0.8636140200 1.0819559151
H 1.7469268397 0.8239093600 -0.5379816649
H -1.0530960003 0.4827373900 -1.8483031349
H 0.4977352397 0.1995888000 -2.6655891849
H 0.0147972897 1.8533760800 -2.2272838949
H -1.1053680003 1.3601384600 0.5853059851
H 1.4739854497 1.6026373400 1.7833265951
