20
Molecule 4908 / 7211 from QM7b dataset
C -2.9896201546 0.8557651679 0.6760317450
C -1.6886805046 0.8367068279 -0.1178452950
N -0.8073792946 -0.2461621321 0.3306751250
C 0.4207866154 -0.3388886621 -0.4452914150
C 1.5437427654 0.6887529479 -0.1300227150
C 2.5731446854 -0.4660882821 -0.2679893650
C 1.4062185654 -1.4712285121 -0.0656241250
H -3.6337731246 1.6852536079 0.3520545650
H -2.7876219046 0.9676579479 1.7505802650
H -3.5552348146 -0.0786828721 0.5328790350
H -1.1488157646 1.7870431379 0.0318598650
H -1.9125339446 0.7746988779 -1.2070251950
H -1.3118551846 -1.1359721121 0.2549776250
H 0.2314722154 -0.3513655121 -1.5424843850
H 1.4533400754 1.0260185479 0.9132101650
H 1.6521387854 1.5600427479 -0.7903733250
H 2.9894657254 -0.5234390921 -1.2839501150
H 3.4016664154 -0.4981410221 0.4518990850
H 1.3966568754 -2.3889054121 -0.6703286950
H 1.2831978754 -1.7311908421 0.9964222550
