17
Molecule 5425 / 7211 from QM7b dataset
C -0.9077036060 -2.0150010221 -1.3750153278
O -0.5321325160 -1.4650273821 -0.1202453078
C 0.4146727440 -0.4013398721 -0.2468160178
C -0.1986298660 0.9161754979 -0.7990050778
C 0.1599455440 1.9534643279 0.2747828422
O 0.2215119340 1.2155508179 1.4996418422
C 0.8971705240 0.0006758079 1.1593203822
H -1.5845450760 -2.8534556321 -1.1664904878
H -0.0260717460 -2.3908499721 -1.9295450678
H -1.4355776260 -1.2824496321 -2.0135290078
H 1.2591508940 -0.7507093621 -0.8721961878
H -1.2895571560 0.7896210479 -0.8534274478
H 0.1757901840 1.1874423779 -1.7951914978
H 1.1418911140 2.4229240579 0.0596458022
H -0.5893483860 2.7463346179 0.3989319922
H 1.9928981340 0.1648831279 1.1491576722
H 0.6476022840 -0.7617765521 1.9078711522
