18
Molecule 5701 / 7211 from QM7b dataset
C -1.7772847410 -0.2685376551 0.3125260875
C -0.2668476410 -0.1598869951 0.1459644675
C 0.1494004790 -0.1617621051 -1.3337696225
O -0.3484004010 0.9449887149 -2.0931407025
C 0.4684185590 0.9451112949 0.9576866875
C 1.4729259390 -0.1539016051 1.3747913775
N 0.4960077890 -1.1900728851 0.9279539375
H -2.0329396410 -0.3201046451 1.3791436475
H -2.1623231210 -1.1803705551 -0.1718596225
H -2.2953285310 0.6029531949 -0.1186728325
H -0.1583974410 -1.1257699151 -1.7882246525
H 1.2460362190 -0.0932960551 -1.4079912725
H -1.3152557910 0.8540271249 -2.1514151125
H -0.1320076110 1.3144204449 1.7994984875
H 0.8498100790 1.7945910349 0.3781586175
H 2.4078381890 -0.1190432151 0.7883564975
H 1.7319367790 -0.2212069451 2.4424193175
H 0.8961039890 -1.9417375951 0.3568409975
