19
Molecule 1950 / 7211 from QM7b dataset
N -3.3980436517 -0.6231649348 0.2642770075
C -1.9656092117 -0.9408759248 0.3663061575
C -1.1263508317 0.2553801852 -0.0811850625
N 0.3026347483 -0.0456870648 0.0019188875
C 1.1429415183 1.0685295452 -0.4187804025
C 2.6149283483 0.7740545652 -0.3572045625
C 3.1735911083 -0.3299639648 0.1514893775
H -3.9534119917 -1.4578268448 0.4623659775
H -3.6513243317 0.0600308652 0.9834337175
H -1.7651581017 -1.7900314448 -0.3095327025
H -1.6284277217 -1.2473570748 1.3757168675
H -1.3290171617 1.1095302452 0.5902864775
H -1.4585254817 0.5650991152 -1.0951193725
H 0.5097976883 -0.8504722348 -0.5984572925
H 0.9276025383 1.9284778352 0.2438937775
H 0.9022353183 1.4307383352 -1.4459518725
H 3.2549436483 1.5537654752 -0.7840726625
H 2.5665366383 -1.1173156548 0.6017923275
H 4.2556056983 -0.4654210548 0.1485204475
