15
Molecule 1103 / 7211 from QM7b dataset
C -1.9281270127 0.0156443120 -0.5905444514
C -0.4084440627 0.0502599520 -0.4357174914
N 0.1994841473 0.2538410820 -1.7696275314
C 0.1731594473 -1.2050047080 0.2353850986
O 1.2272793173 -0.7350814980 1.1261625586
N 1.0266326073 0.6428164320 1.3578087486
C 0.1005345773 1.0680712020 0.5716490886
H -2.4196078927 -0.1351888780 0.3792391686
H -2.2199625727 -0.7951677380 -1.2723784214
H -2.2976995627 0.9612770120 -1.0149950314
H 1.2111433373 0.3813082020 -1.6728505214
H -0.1615466927 1.1150693820 -2.1901544814
H 0.6183219773 -1.9028296980 -0.4854032414
H -0.5845377427 -1.7190191080 0.8483662586
H -0.1699003627 2.1247756620 0.5969738186
