13
Molecule 3497 / 7211 from QM7b dataset
C -1.3720356434 0.1207933951 1.2769050142
C 0.0317467366 0.2183778451 0.6822091642
O 0.0654512966 -0.2216717549 -0.6981217158
N 0.1650889866 -1.6314031349 -0.6996090058
C 0.1384245766 -2.0907327049 -1.8938251758
C 0.5370568566 1.5978843051 0.6887044542
N 0.9206743366 2.6969641051 0.7435851842
H -1.3697976734 0.4663620851 2.3189872642
H -1.6936040734 -0.9276027849 1.2497901542
H -2.0751315234 0.7341443551 0.6999057942
H 0.7378770666 -0.4067494449 1.2536246742
H 0.2262534366 -3.1732258349 -1.9876006458
H 0.0392939766 -1.4564181749 -2.7815275058
