19
Molecule 7152 / 7211 from QM7b dataset
C -1.3612421553 -2.9636319844 0.6376715626
C -0.7620862453 -2.2830254244 -0.6029174874
C -0.8359332953 -0.7848117444 -0.5365546874
C 0.2171995047 0.0437167756 -0.5639840674
C 0.1446800047 1.5472402656 -0.4757252874
C 0.8757440147 2.0828661156 0.7290098626
C 1.9314948547 2.9034109556 0.6853110226
H -1.3049809353 -4.0585733744 0.5548386326
H -2.4196322153 -2.6913439244 0.7679241426
H -0.8243461053 -2.6607834944 1.5483161126
H -1.3061014053 -2.6347159344 -1.4978803874
H 0.2871142547 -2.5935473144 -0.7329814074
H -1.8427711253 -0.3539555244 -0.4453923874
H 1.2260177447 -0.3808354944 -0.6429579474
H -0.9149917953 1.8531528156 -0.4326625674
H 0.5762203247 1.9995630856 -1.3856163174
H 0.5027824347 1.7383921756 1.7004364826
H 2.3366196147 3.2594027856 -0.2659148074
H 2.4249291147 3.2486544456 1.5950249426
