16
Molecule 384 / 7211 from QM7b dataset
C 1.6660164767 -0.0872431639 0.0051729048
C 0.7928634067 -1.2123597539 0.5749921948
C -0.4684353233 -1.4657158239 -0.2594358052
C -1.5293492133 -0.3943253139 -0.1287216052
N -1.4889435833 0.8576459061 0.1729658548
O -0.2326941733 1.4969365461 0.3194006748
C 0.8229947767 1.0478810961 -0.5646805852
H 2.3096109267 -0.4695964039 -0.8061627152
H 2.3374576767 0.2976935661 0.7875766548
H 1.3767487167 -2.1423997139 0.6495206048
H 0.4843521967 -0.9525360539 1.5989990348
H -0.9425107733 -2.4058539039 0.0648062048
H -0.2148271333 -1.6233504139 -1.3236394152
H -2.5685631733 -0.7274797839 -0.2383153552
H 1.4336548067 1.9476115061 -0.7352100052
H 0.3636944867 0.7674752461 -1.5275040152
