14
Molecule 3857 / 7211 from QM7b dataset
C -2.2347398034 -0.0119841936 0.1540606203
N -0.8590773434 -0.4622080836 0.0574919303
C 0.1845975166 0.4448532064 -0.0357056897
N 0.0829978466 1.7280281664 -0.2008676197
C 1.5539295366 -0.1170696836 0.0177625303
C 1.8932968166 -1.4104544336 -0.0797693897
H -2.8851114234 -0.8857669836 0.2787630703
H -2.5390583234 0.5010884564 -0.7709478797
H -2.4032645634 0.6745637064 1.0038717903
H -0.6393332434 -1.3360112936 0.5262270503
H -0.9016508434 2.0250424764 -0.2262261697
H 2.3209401566 0.6524510464 0.1255120803
H 1.1600007266 -2.2044385236 -0.2387342597
H 2.9375295966 -1.7197388336 -0.0329242797
