17
Molecule 5750 / 7211 from QM7b dataset
C -0.7235336153 -2.0737273488 -1.6113111409
C -0.5502321153 -1.5317672288 -0.1920481809
C 0.4262336247 -0.3444139288 -0.0973623509
C 0.6275047547 0.1516317812 1.3607433991
O 0.4111926347 1.6003026712 1.3764902791
C -0.0099164353 1.9335297812 0.1143113891
C -0.0392201053 0.9301194812 -0.7723487909
H -1.3948909053 -2.9440071888 -1.6242629909
H 0.2413458547 -2.3907653788 -2.0368289009
H -1.1522694753 -1.3159146188 -2.2834405409
H -0.1832022153 -2.3399723488 0.4644330691
H -1.5263533853 -1.2157178688 0.2135760291
H 1.3927437547 -0.6704259688 -0.5281636309
H 1.6368048547 -0.0317372288 1.7529688191
H -0.1110762753 -0.2955715288 2.0461832491
H -0.2602288453 2.9860216312 -0.0101890909
H -0.3174310853 1.0234339112 -1.8181041909
