17
Molecule 4194 / 7211 from QM7b dataset
C -1.9370172200 0.3428231816 -1.4483744335
C -0.4563600800 0.2452717016 -1.0790306335
O -0.2236237700 -0.9118351484 -0.2423496935
C 0.3910689600 -0.5189355684 1.0073323165
C 1.7185300200 -1.2533869284 1.1997602265
C 0.5160569100 0.9767821116 0.9098898565
C 0.0594916900 1.4034644716 -0.2700055435
H -2.2628525100 -0.5836759984 -1.9399366835
H -2.1066432700 1.1792980116 -2.1424154835
H -2.5485505400 0.4990823616 -0.5488371335
H 0.1332007800 0.1237047416 -2.0113344335
H -0.2927255000 -0.8027706284 1.8338037065
H 2.4312027400 -0.9748125884 0.4105621065
H 1.5558108600 -2.3390981184 1.1608743065
H 2.1580031300 -1.0054914984 2.1776598065
H 0.9342292800 1.5894839016 1.7084717265
H 0.0366935100 2.4328471816 -0.6274811035
