15
Molecule 5780 / 7211 from QM7b dataset
C -2.0579961398 0.2769707007 0.4292909320
N -0.6295573298 0.2423428207 0.2299608120
N 0.0956260302 1.4752014907 0.1310453420
C 1.3279209702 1.0748877407 -0.6051837480
C 1.5480746602 -0.4009648693 -0.2700226880
C 0.1186828002 -0.8887884893 0.0028849020
O -0.3026830698 -2.0423965893 0.0050690620
H -2.4139465598 -0.7580424993 0.3547484420
H -2.5368045298 0.8998906807 -0.3401519080
H -2.3177232598 0.6757646807 1.4231899120
H 0.3747175902 1.7225584907 1.0930955520
H 1.1318757502 1.2006039207 -1.6814449280
H 2.1513683802 1.7419294107 -0.3204561480
H 1.9973378902 -0.9889796893 -1.0784393380
H 2.1520646502 -0.5499929593 0.6400464520
