14
Molecule 2199 / 7211 from QM7b dataset
C -1.6307502200 -0.3097595558 -0.0426656117
C -0.0915544100 -0.2995602258 -0.0064390717
C 0.4392300900 -1.0706542258 1.2087143783
O 0.4384933700 -0.9958387258 -1.1614997517
C 0.3993943400 1.0894731142 0.0079323583
C 0.7872219200 2.2400979242 -0.0139288417
H -2.0004295000 0.2257214342 -0.9282136217
H -2.0478870500 0.1775874942 0.8492873383
H -1.9811464300 -1.3499753258 -0.0841919017
H 0.0766941300 -0.6185374058 2.1403252583
H 1.5359779000 -1.0617966658 1.2094666983
H 0.0914903200 -2.1112421458 1.1531734983
H 0.2542254500 -0.4432616458 -1.9423083617
H 1.1418779000 3.2506318842 -0.0272201617
