19
Molecule 5875 / 7211 from QM7b dataset
C -2.4239779228 -0.6324987587 0.5826364564
C -0.9323094428 -0.8290577887 0.3488614864
C -0.6433737528 -1.6237080887 -0.9245447036
O -0.3546580228 0.4960105413 0.3153528264
C 1.0441560172 0.5159991413 0.4441647464
C 1.9278549172 0.6173825713 -0.7810004836
C 1.7149773472 1.8153395713 0.1280270364
H -2.5994827728 -0.0648428887 1.5058803664
H -2.9310522428 -1.6037716487 0.6643724564
H -2.8706870528 -0.0776503487 -0.2555504836
H -0.4967548528 -1.3678888187 1.2157144964
H -1.0572254328 -1.1028289387 -1.8009811836
H -1.1081339828 -2.6187474087 -0.8623718236
H 0.4349025572 -1.7613942287 -1.0771041536
H 1.4222427872 -0.0638830087 1.2964250364
H 1.4248356672 0.6418207213 -1.7474883836
H 2.8960817272 0.1141380613 -0.7725864436
H 2.5316656372 2.1482108913 0.7682925864
H 1.0669091672 2.6080134013 -0.2462923136
