20
Molecule 3363 / 7211 from QM7b dataset
N -2.7394600198 -2.2263645167 1.2764033567
C -1.4587984198 -1.5318462567 1.4839887067
C -1.0658367798 -0.7371477567 0.2389858567
C 0.2867766002 -0.0322592767 0.3738025167
C 0.6688707602 0.7791101833 -0.8672909533
C 2.0139598202 1.4755986433 -0.7253899133
O 2.2683266302 2.2121130233 -1.9311123933
H -3.4902091298 -1.5376176067 1.1729830067
H -2.9757550698 -2.7781840267 2.1042590567
H -0.6918539598 -2.3005441267 1.6783026367
H -1.4528850798 -0.8511549467 2.3615425367
H -1.8485644298 0.0147281533 0.0294801767
H -1.0551548398 -1.4214928067 -0.6252214333
H 1.0690112902 -0.7859126267 0.5758269967
H 0.2668382102 0.6327758033 1.2557878467
H -0.1000908898 1.5426338733 -1.0717512233
H 0.7046508502 0.1233331333 -1.7528908433
H 2.8086390902 0.7246951833 -0.5500400733
H 1.9946243202 2.1531989433 0.1503267867
H 3.1305248502 2.6504552633 -1.8391071033
