17
Molecule 5503 / 7211 from QM7b dataset
N -1.6300515266 0.1521060325 1.1369644931
C -0.2106064266 0.1736613725 1.4037228831
C 0.7102538834 -0.7003799475 0.5715239431
C 0.1693361934 -1.2801035675 -0.7449576769
N 0.2746747434 -0.2201732075 -1.7791702969
C 0.1877419034 1.0595726425 -1.0316517869
C 0.7220281134 0.8065713825 0.3868652031
H -2.0659661166 1.0225488125 1.4495790831
H -2.0788052066 -0.6100668975 1.6499324631
H 0.1110453334 0.2991095525 2.4476745231
H 1.5284444434 -1.2121765275 1.0808419231
H 0.7344997734 -2.1695232075 -1.0564794269
H -0.8880270366 -1.5667736075 -0.6390775069
H 1.2238112334 -0.2744505375 -2.1612651669
H 0.7660148434 1.8386168625 -1.5476116669
H -0.8648540366 1.3796913825 -1.0002346669
H 1.5489522534 1.4135630925 0.7590656731
