18
Molecule 6466 / 7211 from QM7b dataset
C -2.7018921085 -0.5304609472 0.0138048143
C -1.1908891485 -0.7515093672 0.0984814443
C -0.3932187685 0.5607658128 -0.0244143257
C 1.1067596115 0.3885422128 0.0596798843
C 1.7786875015 -0.3054543672 -1.0969040457
C 1.8054405215 0.8390888628 1.1137855143
H -3.2512971585 -1.4770100472 0.1199520243
H -2.9864918485 -0.0854620972 -0.9521526157
H -3.0507619785 0.1486756828 0.8068726943
H -0.8801062085 -1.4538538972 -0.6919067457
H -0.9354280585 -1.2310580872 1.0578342143
H -0.7233091985 1.2530008828 0.7671925043
H -0.6505990385 1.0377034628 -0.9885263057
H 1.3853028915 -1.3234704772 -1.2445062157
H 2.8637247115 -0.3797188772 -0.9465873657
H 1.5972436515 0.2409456928 -2.0373033557
H 1.3144757415 1.3533959528 1.9427752843
H 2.8879208415 0.7110185728 1.1797561643
