13
Molecule 483 / 7211 from QM7b dataset
C -1.6896922980 -1.8901986596 0.6350120346
N -0.6113813680 -1.7197612096 -0.0522047354
N -0.2860101580 -0.4706996296 -0.4575315054
C -0.6042571680 0.7784979204 0.2975137346
C 0.8187615820 1.2460929304 -0.0518268854
O 1.4277533320 2.2762663004 0.0883257446
C 1.1455542520 -0.1339371096 -0.6442537354
H -1.9444356980 -2.9133113196 0.9109918646
H -2.3645041380 -1.0745409796 0.9313630846
H -0.7380254980 0.6042331704 1.3829105646
H -1.4412119980 1.3789245304 -0.0876415054
H 1.4964773120 -0.1524061196 -1.6866658654
H 1.8292158420 -0.7225342996 -0.0080813054
