15
Molecule 825 / 7211 from QM7b dataset
N -1.8919918438 0.6399557654 -0.8038642839
C -1.1097010538 0.9840823854 0.2827112261
N -1.3548067638 1.8383033354 1.2132404861
C 0.2658417662 0.3424115154 0.2914103661
O 0.2020085262 -0.9515938346 -0.3297837539
C 1.3877283162 -1.6188632746 -0.4581826239
C 2.6050209962 -1.2280421546 -0.0552575439
H -1.6724321938 -0.2513935046 -1.2438407539
H -2.8814657438 0.8613408754 -0.7483915039
H -2.2746735538 2.2824420754 1.0834593561
H 0.6097900262 0.2634487554 1.3328656561
H 0.9693415762 0.9830488754 -0.2699929739
H 1.2178497162 -2.5747014646 -0.9580965839
H 2.8017413762 -0.2867139646 0.4536784861
H 3.4480306962 -1.8900655046 -0.2411336139
