13
Molecule 2909 / 7211 from QM7b dataset
C -2.0890190101 -1.2325682794 -0.2659470613
N -0.8193589601 -0.6179725894 0.0884579387
C -0.2309261201 0.3326143506 -0.6840774713
O -0.6850463701 0.7743652306 -1.7351097413
C 1.1261682999 0.8800886106 -0.1670014713
C 1.6034081799 0.3169775206 1.0853863387
N 1.9234560499 -0.1812014394 2.0915868987
H -1.9769838401 -2.3196123694 -0.3820379913
H -2.4137075001 -0.7995303194 -1.2186638813
H -2.8505157701 -1.0294929394 0.5001047087
H -0.3481083901 -0.9087316194 0.9424340187
H 1.0171107399 1.9701296106 -0.0701252513
H 1.8661079999 0.7038607806 -0.9613095413
