14
Molecule 5614 / 7211 from QM7b dataset
C -1.9753222092 -0.2140964067 0.5849567600
C -0.4494180492 -0.3137640367 0.7219974000
C 0.1913955908 -1.5338482767 0.1099361800
C 1.1187472308 -1.1373473467 -0.7811203600
N 1.1867184508 0.2661940133 -0.8457649700
C 0.2624270008 0.8583014033 0.0089824300
O 0.0696813808 2.0585604533 0.1411965300
H -2.3189291292 0.7646910633 0.9456097000
H -2.4705677892 -1.0006266967 1.1702839900
H -2.2789636492 -0.3238939767 -0.4654296300
H -0.1847117792 -0.2323792067 1.7924368600
H -0.0542077692 -2.5630678367 0.3557946500
H 1.7769934708 -1.7365293267 -1.4058371100
H 1.7789290608 0.8044922433 -1.4705903700
