13
Molecule 6633 / 7211 from QM7b dataset
N -2.4662856980 -0.2966225234 -0.2459648479
C -1.0922126180 -0.1481914434 -0.0719677779
C -0.2705070080 0.9458043466 0.0304018021
C 1.0729090420 0.4256204266 0.0821912921
N 2.2256509320 1.2100201066 0.2763895421
C 0.9729321920 -0.9372231634 0.0063717221
O -0.3757564980 -1.3028525434 -0.0826177079
H -2.9934853680 0.4857498566 0.1358852321
H -2.8099247080 -1.1783690534 0.1342168721
H -0.5726991980 1.9872130666 0.0800905721
H 2.2028432320 2.0701836966 -0.2705905179
H 3.0834235120 0.7033406566 0.0621525721
H 1.6816082320 -1.7551419534 0.0242318421
