19
Molecule 7036 / 7211 from QM7b dataset
C -2.8700875791 -1.7309725673 -0.0894244597
C -1.3871500491 -1.5867624873 -0.2489552497
C -0.5676723591 -0.9939305873 0.6305388103
C 0.9220000609 -0.8601927973 0.4861175003
C 1.4294375309 0.5944842327 0.5419565203
C 0.9766039009 1.4385420127 -0.6474972897
O 1.5113954409 2.7692838027 -0.6276541197
H -3.4099656291 -1.2505014673 -0.9214361197
H -3.2208601791 -1.2821625473 0.8505976403
H -3.1704285391 -2.7912806573 -0.0948019397
H -0.9531839591 -2.0091867573 -1.1643337597
H -1.0009262791 -0.5700683473 1.5473069403
H 1.2478345009 -1.3321426073 -0.4563876797
H 1.4137381309 -1.4212733573 1.3001355403
H 2.5302130709 0.6022213127 0.5787796803
H 1.0778467709 1.0661362027 1.4780461903
H -0.1268569491 1.4554669927 -0.7078616297
H 1.3462785209 0.9938640627 -1.5850608197
H 1.1563579809 3.2176499127 0.1598339203
