12
Molecule 98 / 7211 from QM7b dataset
C -3.1523006538 0.0237978192 -0.0463783684
N -1.8847845138 0.2431439592 -0.0479111484
N -1.0607726638 -0.8235594708 0.0654841516
C 0.3062955662 -0.6819298708 0.0700450116
C 0.9846083762 0.4901566092 -0.0327338084
C 2.3971445662 0.5199423892 -0.0173527384
N 3.5687175762 0.5718795892 -0.0077943584
H -3.8086842138 0.8882957292 -0.1377192984
H -3.5956183038 -0.9809635008 0.0416843416
H -1.4579877738 -1.7642260208 0.1484201816
H 0.8354989062 -1.6301463608 0.1675143416
H 0.4501814662 1.4349899292 -0.1298306584
