17
Molecule 2922 / 7211 from QM7b dataset
C -0.5535344605 -3.3570152885 0.0020051815
C 0.5309729595 -2.3587614885 -0.4355635785
C 0.3865476895 -1.0356194985 0.2421912815
N 0.1952263895 0.0435433515 -0.4313855085
N 0.0759891895 1.1747240315 0.4129571015
C -0.1487668505 2.2470413415 -0.2617842885
C -0.3113262205 3.5629102115 0.4162314815
H -0.3919379705 -4.3364308985 -0.4686411985
H -1.5524440805 -3.0000071885 -0.2852626485
H -0.5480619105 -3.5025102185 1.0923215115
H 0.5078717995 -2.2037646785 -1.5235973485
H 1.5229184395 -2.7722617985 -0.1802884985
H 0.4310261295 -0.9981512485 1.3445217015
H -0.2240449705 2.1988321515 -1.3608588185
H -0.2116526505 3.4575783115 1.5030060015
H -1.2957232205 3.9977981515 0.1807594215
H 0.4401806795 4.2797140715 0.0485582615
