19
Molecule 7079 / 7211 from QM7b dataset
C -2.0412035911 -1.8927541818 -1.2520253556
C -1.3470351211 -1.5252546518 0.0710724844
C -0.8655521411 -0.1070441118 0.0909228044
C 0.3978501689 0.3630896682 0.2487484844
C 1.6061208689 -0.5138192618 0.4526043844
C 0.6069567389 1.8122430882 0.2239437244
C 1.7832639489 2.4526781482 0.3675036744
H -2.4220218411 -2.9237874118 -1.2230732056
H -1.3442506711 -1.8080444718 -2.0980843156
H -2.8921239511 -1.2247047218 -1.4523004756
H -0.5253530811 -2.2296584818 0.2656020144
H -2.0710748111 -1.6626623118 0.8951526344
H -1.6532537611 0.6434502382 -0.0553159156
H 1.3590222889 -1.5808689918 0.4343073544
H 2.0884042989 -0.2947779518 1.4181827044
H 2.3581703489 -0.3265933218 -0.3297034956
H -0.2981190411 2.4117312582 0.0733692344
H 2.7232892389 1.9200668682 0.5211113844
H 1.8349057489 3.5410171182 0.3341308744
