18
Molecule 1954 / 7211 from QM7b dataset
O -1.4288294823 0.2678256573 1.3192838167
C -0.0032894323 0.1512477473 1.2284336367
C 0.4221812877 -1.2206837827 0.6758481267
C 0.0116373677 -1.3805425027 -0.7957568633
C 0.4595361877 -0.1756286127 -1.6280429833
N -0.0479378023 1.0589596673 -1.0099205233
C 0.5419291677 1.2614349173 0.3200898367
H -1.7056187623 0.5387420373 0.4182917267
H 0.3854843077 0.2797949373 2.2513246267
H -0.0265695023 -2.0136460627 1.2923144167
H 1.5188071177 -1.3121786227 0.7704661167
H 0.4382297677 -2.3043700027 -1.2155843033
H -1.0846284723 -1.4724044427 -0.8631608133
H 1.5707061977 -0.1716103327 -1.6973885533
H 0.0628051577 -0.2464823027 -2.6518603533
H 0.1352000677 1.8635071873 -1.6099003333
H 1.6531921277 1.2270399873 0.3100824967
H 0.2266249977 2.2413180873 0.7071575767
