18
Molecule 2585 / 7211 from QM7b dataset
C -2.3088466812 0.0845954035 0.6147999181
C -0.9742823512 0.0233304435 0.5222074381
C -0.1978373612 -1.2696884365 0.4829340481
C 0.8129455288 -1.2694578265 -0.6789401819
C 1.6622619388 0.0022652235 -0.6495742519
N 0.7858566388 1.1753427735 -0.7231045819
C -0.1076353512 1.2589176435 0.4446879281
H -2.8362672812 1.0407959735 0.6325857381
H -2.9161755812 -0.8210471465 0.6806848781
H -0.8808683012 -2.1296754165 0.4168725481
H 0.3634933788 -1.3728560065 1.4314748381
H 1.4619711288 -2.1567905965 -0.6183259019
H 0.2712877788 -1.3108771865 -1.6372938619
H 2.2887019288 -0.0058652365 0.2734797081
H 2.3462446588 0.0248043835 -1.5115636219
H 1.3496308988 2.0259433235 -0.7761421119
H 0.4641341588 1.3395935935 1.4007103781
H -0.7327835712 2.1588001935 0.3525600881
