20
Molecule 6026 / 7211 from QM7b dataset
C -2.0639999298 -0.7413417670 -0.9101894006
C -0.5795838198 -0.7609058070 -1.2856625206
C 0.3444056002 0.0224984230 -0.3384341906
C 0.0394983302 1.5161066830 -0.2703787506
N 1.1052357502 2.2087497830 0.4677639094
O 0.2759173702 -0.4566869770 1.0209887194
C 0.9597725602 -1.6843473970 1.2303728494
H -2.6405120198 -1.4075371570 -1.5676086906
H -2.4980045698 0.2648919630 -0.9985598306
H -2.2090431098 -1.0773908470 0.1263816594
H -0.4346081998 -0.3573715170 -2.3018385306
H -0.2272253198 -1.8041784370 -1.3312370106
H 1.3905648702 -0.0860074470 -0.6905566906
H -0.9704195798 1.6502044030 0.1645892394
H 0.0116678002 1.9095755130 -1.2993681406
H 1.1341634902 1.8223476130 1.4157949994
H 0.8707373102 3.1988050630 0.5674189094
H 0.9372362002 -1.8810795170 2.3102899794
H 2.0128170002 -1.6199603870 0.8979937694
H 0.4780804702 -2.5321127170 0.7101952994
