15
Molecule 4172 / 7211 from QM7b dataset
C -2.7280997742 1.3272595793 -0.1968215764
N -1.6677145242 0.8261481093 -0.7266963264
N -0.9726952242 -0.1162184107 -0.0349339864
C 0.4165474658 -0.2699152607 -0.3905944064
C 1.5311578658 0.5041951993 0.3644775236
O 2.2650864558 -0.7324679507 0.5960145636
C 1.1299605758 -1.5253927007 0.1455120836
H -3.3032930142 2.0342592393 -0.7942421364
H -3.0821393542 1.0691343493 0.8145754236
H -1.1716745442 -0.1722997607 0.9740925236
H 0.4852189758 -0.1547957107 -1.4789370664
H 1.1870182958 0.9609165893 1.3111152136
H 2.1240544558 1.2348903793 -0.2065302064
H 1.4233709158 -2.2951968207 -0.5840391264
H 0.6022240658 -2.0035534507 0.9918193136
