15
Molecule 3106 / 7211 from QM7b dataset
C -1.0748271215 0.1503192125 -1.4833263999
C -0.5835136815 -0.1304439975 -0.2572828099
C -1.4914131115 -0.8696066475 0.6602268501
O -1.2107334415 -1.2079838275 1.8000498301
C 0.7590890485 0.2188873925 0.2613536601
C 1.9785283185 0.1941595225 -0.6477298699
C 1.4489720585 1.5074894425 -0.1566588099
H -0.5063779415 0.6861463325 -2.2453204399
H -2.0855703715 -0.1625302875 -1.7528153099
H -2.4928933915 -1.1059383375 0.2178196201
H 0.9131218785 -0.1062809275 1.2910816701
H 1.8052342285 -0.0741007375 -1.6911199799
H 2.9084889085 -0.1865901975 -0.2250901899
H 2.0094302585 2.0446797425 0.6086017801
H 0.9134208985 2.1436554825 -0.8630515199
