15
Molecule 2865 / 7211 from QM7b dataset
C -0.5203906466 -2.2080424796 -0.2911523346
O -0.8344730566 -0.9113181496 0.2152811354
C -0.2560259766 0.1621794004 -0.5449449646
C -0.8202728066 1.4492889504 0.0797594954
O -0.5016045766 1.5748504904 1.4553745254
C 1.2100187634 0.1245219904 -0.5497612246
C 2.4227418034 0.0873470704 -0.5772587846
H -1.0336362766 -2.9272983996 0.3582732354
H 0.5653004434 -2.3988097596 -0.2672595046
H -0.8854038266 -2.3284751196 -1.3276009746
H -0.6131360866 0.1046803204 -1.5952712246
H -1.9141892166 1.4385991404 -0.0852254646
H -0.3940654066 2.3221532004 -0.4336629246
H -0.7461759566 0.7263242504 1.8705350554
H 3.4935005734 0.0627980504 -0.5848866046
