17
Molecule 4135 / 7211 from QM7b dataset
C -2.6976403983 -0.1112721411 -0.1567312364
C -1.2447776883 -0.4941676411 -0.2682745464
C -0.9763044583 -1.9726757911 -0.1860935264
C -0.3007094883 0.4524446989 -0.4443714464
C 1.1896017417 0.2644439989 -0.5578212964
C 1.8565505417 0.6669125189 0.7475905636
O 2.6380845617 1.5897983489 0.8766800936
H -2.8401344283 0.9758480289 -0.2107440964
H -3.1269457583 -0.4694044011 0.7933920536
H -3.2885432883 -0.5787070411 -0.9618504964
H -1.5674312583 -2.5124364111 -0.9439924164
H -1.2941850383 -2.3681066711 0.7926629036
H 0.0788283917 -2.2365628311 -0.3259267464
H -0.6292876283 1.4964390089 -0.4781802264
H 1.6115825417 0.8820926289 -1.3639596964
H 1.4460315817 -0.7898733011 -0.7500802864
H 1.5450868917 0.0482103389 1.6294471936
