14
Molecule 2690 / 7211 from QM7b dataset
C -1.9644497445 -0.4758033258 0.1839057162
C -0.4687094345 -0.6205053658 -0.0527222538
O -0.2950752145 -1.2052426158 -1.3533316938
C 0.2476743255 0.7101401242 0.0149323662
C 1.0329005255 1.1130408542 1.1923661562
O 1.6945356555 0.6289195542 0.0064759362
H -2.1629476045 -0.0680944458 1.1845784162
H -2.4529142845 -1.4553161858 0.1011781462
H -2.4091653545 0.1938212242 -0.5662278938
H -0.0286304745 -1.2841842658 0.7180452062
H 0.6651505055 -1.2499911758 -1.5144856738
H -0.1541379145 1.4925646042 -0.6422711138
H 1.0832041955 0.4436114042 2.0582383762
H 1.1792633755 2.1769396142 1.4048986862
