13
Molecule 1225 / 7211 from QM7b dataset
C -1.6648543717 -0.6947055682 0.7103296932
C -0.1494938917 -0.5311528282 0.4704923332
C 0.3249212883 -1.2780791782 -0.6889194168
C 0.7380708583 -1.8348414882 -1.6872826468
C 0.2205115283 0.9788390318 0.4040420232
O 0.9640979383 1.3722139318 -0.6564760468
O -0.1276512517 1.7563227818 1.2632740532
H -1.9564820617 -0.0899940982 1.5769660332
H -1.9063389617 -1.7472385582 0.9011371732
H -2.2338820217 -0.3583192482 -0.1661031568
H 0.3834747983 -0.9017766482 1.3642852732
H 1.0922560483 -2.3546459582 -2.5548390668
H 1.1144662383 0.5833209918 -1.2278022268
