18
Molecule 1415 / 7211 from QM7b dataset
C -2.1931332160 -0.9349650682 0.8656630025
C -0.7025570860 -0.7023934182 0.8680864525
N 0.1637725440 -1.2447543382 -0.2133368175
C 0.0014432940 0.2338952318 -0.0598894075
C -0.7264356460 1.0209564018 -1.1274636575
C 1.3138853440 0.8545853218 0.4033352125
O 2.3356639740 0.6875237018 -0.5807160275
H -2.6921334560 -0.2608629282 1.5782963625
H -2.4196374260 -1.9672195282 1.1720654125
H -2.6432672060 -0.7725176082 -0.1229186175
H -0.2439859760 -0.8277594182 1.8563049325
H -0.4390351060 -1.5610417182 -0.9826418775
H -1.5987833160 0.4868487518 -1.5261752075
H -0.0426820660 1.2294684818 -1.9633757875
H -1.0741171560 1.9873862818 -0.7303283675
H 1.6162440240 0.4006709718 1.3655282025
H 1.2025874040 1.9391601218 0.5567060825
H 2.3438745440 -0.2735134682 -0.7627648075
