15
Molecule 6668 / 7211 from QM7b dataset
C -2.5325208944 0.1498707778 0.2285094117
C -1.0478302844 0.1111698978 0.0945037617
C -0.2616537544 -0.9858145522 0.0067765917
C 1.1589810456 -0.6114548522 -0.1127908183
O 2.1203880856 -1.3643981522 -0.2081322183
C 1.2226097856 0.9261515578 -0.0953296783
C -0.2359162044 1.3884759478 0.0423123617
H -2.9722362844 -0.8547241122 0.2540352817
H -2.9823460344 0.7086105878 -0.6081843583
H -2.8241562944 0.6839700678 1.1473694217
H -0.5954557344 -2.0232743822 0.0199844217
H 1.7043923556 1.2755957978 -1.0194188583
H 1.8622980956 1.2494745778 0.7379673217
H -0.5671286644 2.0165727978 -0.8018635083
H -0.4104902844 1.9885672178 0.9512782417
