16
Molecule 2043 / 7211 from QM7b dataset
C -2.8258752650 -0.5856278975 1.0306301083
N -1.3679592850 -0.5425341675 1.1227864683
C -0.7722635650 0.3186433825 0.1090472083
C 0.7556025750 0.1940774525 0.1604958783
O 1.1674151550 -1.1294606775 -0.1171956317
C 1.4128930150 1.1684495525 -0.7864209017
O 2.2020401250 0.7985510025 -1.6409098317
H -3.2161409350 -1.3043456775 1.7638124583
H -3.2083681050 -0.8668830175 0.0267963383
H -3.2405781250 0.4033535325 1.2811003483
H -0.9894565550 -1.4849036775 0.9939841783
H -1.0581301750 1.3647132625 0.3197541283
H -1.1120236350 0.0820181825 -0.9248319317
H 1.0730918650 0.4808445325 1.1874134283
H 1.8019226850 -1.0481933575 -0.8636998517
H 1.1476151750 2.2451578525 -0.6615044317
