12
Molecule 922 / 7211 from QM7b dataset
O -0.4822307894 -2.4917021056 0.0042824646
C -0.9872869394 -1.3874215156 -0.0071857354
N -0.2642340294 -0.1883855056 -0.0026986454
C -0.8359529894 1.0886858744 -0.0167604454
C 0.1860483806 2.0020631844 -0.0065470554
C 1.4235613906 1.2702394744 0.0142150946
C 1.1249094906 -0.0689529456 0.0161222946
H -2.0833443894 -1.2021968356 -0.0242453354
H -1.9139047894 1.2101515344 -0.0324310654
H 0.0717604906 3.0819100844 -0.0129985754
H 2.4233531006 1.6944029044 0.0263864246
H 1.7419441106 -0.9596367356 0.0288544346
