14
Molecule 3925 / 7211 from QM7b dataset
C -1.9253281236 -1.4810090024 0.2306860682
C -0.3816663336 -1.4900494924 0.1749502782
N 0.2046342564 -2.2235129224 -0.9644451318
C 0.1365473264 -0.1226873324 0.1949213782
C 0.5214444964 1.0381938876 0.2028064482
C 0.9646119864 2.3233271576 0.2175857282
C 1.3610192764 3.4780508376 0.2299123582
H -2.2897211136 -0.9531480724 1.1235748982
H -2.3005493936 -2.5142321324 0.2605912382
H -2.3375356736 -0.9823355824 -0.6580145418
H -0.0104127936 -1.9901374224 1.0892391282
H -0.0958261536 -1.7835217024 -1.8392391718
H -0.1702523936 -3.1759354224 -0.9714066318
H 1.7120859564 4.4889444576 0.2411974482
