19
Molecule 4008 / 7211 from QM7b dataset
C -1.7485699875 -0.3648577373 0.3298767623
C -0.2245077775 -0.2107755773 0.2516327623
C 0.4398899325 -0.8736579173 1.4762744023
C 0.2496040425 -0.9360370573 -1.0413851377
O 1.6592684025 -0.8904001673 -1.2759935377
C 0.2158001125 1.2366979727 0.1906781923
C -0.5606873975 2.3239275327 0.1049980123
H -2.2507460575 0.0761518827 -0.5443693777
H -2.1478376675 0.1189485827 1.2330239623
H -2.0225594875 -1.4296429373 0.3720356923
H 0.1481087725 -0.3609884973 2.4040331323
H 1.5347828325 -0.8432424873 1.3890317423
H 0.1351776225 -1.9286249273 1.5543432723
H -0.3062629175 -0.5265525373 -1.9045156777
H 0.0007512625 -2.0057874673 -0.9546196977
H 1.8762047025 0.0023066227 -1.5961412077
H 1.3025844225 1.3807435527 0.2376881123
H -1.6503838175 2.2652447727 0.0749237823
H -0.1231404375 3.3228614827 0.0700646023
