13
Molecule 1661 / 7211 from QM7b dataset
N -1.4294765484 -0.5734147040 -1.5291225256
C -0.5818235584 -0.1708781940 -0.6525885656
C -0.0929331084 1.2420231560 -0.9013883956
O 0.7248301216 1.8411951860 -0.2252240756
N -0.1701724684 -1.0022582440 0.4266555544
C 1.2395344716 -0.9291879640 0.9102027644
C 0.1470891316 -0.3863386040 1.7477392544
H -1.7134194784 -1.5393281740 -1.2968935256
H -0.5743844284 1.6918285860 -1.8019323556
H 1.9073967516 -0.2062812440 0.4413094344
H 1.6625601216 -1.9118254740 1.1272874544
H -0.2416681584 -0.9662709940 2.5868868844
H 0.0872157216 0.6983160860 1.8386131644
