16
Molecule 2499 / 7211 from QM7b dataset
C -0.7424861911 -1.8786240370 -1.5914075066
N -0.5697960911 -1.3829764070 -0.2255690066
C 0.5105550089 -0.3810442670 -0.1080678466
C 0.6645435089 0.0922601930 1.3538943534
O 0.0915014389 1.4338767330 1.4455181134
C -0.0893263111 1.8443209130 0.1528197734
C 0.1624813189 0.9258639630 -0.7902813366
H -1.4626031811 -2.7078776570 -1.5874172166
H 0.1963015189 -2.2336217270 -2.0685720366
H -1.1615062411 -1.0824356970 -2.2236961166
H -0.3233637011 -2.1750785870 0.3757861434
H 1.4749716089 -0.7862943970 -0.4876158366
H 1.7214648389 0.1718459630 1.6495039134
H 0.1223520589 -0.5480933770 2.0629646134
H -0.4234654011 2.8760457230 0.0536943034
H 0.0778056189 1.0786701530 -1.8615542466
