19
Molecule 5352 / 7211 from QM7b dataset
C -0.4245054919 -2.5064260716 -0.6950079851
C -0.9626822019 -1.2452574516 -0.0137815651
C 0.0445895381 -0.1104044416 0.0370350649
O 1.2368287881 -0.4164877016 0.7488605149
C 0.2680696681 0.7535387484 -1.1722715951
C -0.4369488119 1.3318259684 0.0476960949
C 0.2427198181 2.3842486584 0.8929038749
H -1.1697550919 -3.3141672016 -0.6793213751
H 0.4828528581 -2.8656709516 -0.1903742351
H -0.1634382719 -2.3053740116 -1.7446161351
H -1.2810016419 -1.4826006016 1.0184417249
H -1.8664960719 -0.8879659216 -0.5337961251
H 0.9942257681 -0.5208329016 1.6875302549
H -0.3112624419 0.5487597884 -2.0739006551
H 1.2945030881 1.0817303884 -1.3441429351
H -1.5205124819 1.4506728684 -0.0513487751
H 1.3132546981 2.1647074784 1.0047418949
H -0.1995966219 2.4367405984 1.9003705949
H 0.1451407981 3.3807496184 0.4360883149
