11
Molecule 422 / 7211 from QM7b dataset
O -2.1899603968 0.0845571340 0.4879119024
C -1.0112063568 0.1434771440 0.1735328724
C -0.1043140968 1.3330296940 0.1915760124
N 1.0968732332 1.0758644940 -0.2115972876
N 1.1403768232 -0.2504609360 -0.7608868076
C 1.1918463732 -1.2258850560 0.3283972424
C -0.1202181168 -0.9317187060 -0.3714889676
H -0.3659951768 2.3146401740 0.5880077024
H 1.6802427532 -2.1744737960 0.0984202824
H 1.3411802732 -0.8299113660 1.3354533024
H -0.5331418868 -1.6779554460 -1.0498907976
