17
Molecule 2835 / 7211 from QM7b dataset
N -2.0175115893 0.0692711487 -0.7708209508
C -0.5535619893 0.0425694387 -0.6473759308
C -0.0148666893 1.1848038087 0.2242030992
C 1.4109570807 0.7311041787 0.5836830092
C 1.3451028607 -0.8254171813 0.6357741192
C -0.0579583493 -1.2043270513 0.1021558292
H -2.3312533993 -0.7238130313 -1.3370862708
H -2.3063378493 0.9074833487 -1.2827136908
H -0.0349662193 0.0885504187 -1.6307186008
H -0.6495951693 1.2515436987 1.1238375992
H -0.0414448093 2.1639198287 -0.2781717308
H 2.1178022207 1.0535920487 -0.1966708908
H 1.7611242707 1.1703352487 1.5283856492
H 2.1405765407 -1.2675617613 0.0183821792
H 1.4937389207 -1.2052275913 1.6565987292
H -0.0465883193 -2.1056119113 -0.5293441808
H -0.7585125393 -1.3905075013 0.9326071092
