19
Molecule 4157 / 7211 from QM7b dataset
C -2.0516243150 -1.7251829322 -0.4901426472
C -0.7164088850 -1.6898873822 -0.3985629172
C 0.1475453850 -0.4623528922 -0.4070838972
C -0.5540308450 0.9020189378 -0.4570310872
C 0.5757454450 1.8896994978 -0.1292136872
C 1.4448602950 1.1636138878 0.9321516128
C 1.0588700750 -0.3386155922 0.8445976928
H -2.5947593050 -2.6710214322 -0.4672354572
H -2.6486583850 -0.8165452822 -0.5933944572
H -0.1741576350 -2.6388716722 -0.3042510772
H 0.8121796250 -0.5311135022 -1.2917778872
H -1.3330006350 0.9416961278 0.3241264928
H -1.0393241950 1.1045340278 -1.4229077272
H 1.1697512050 2.0814693078 -1.0372673372
H 0.2033841650 2.8628615378 0.2210140228
H 2.5165284450 1.3220627478 0.7448704528
H 1.2412216650 1.5534261978 1.9400499128
H 1.9335814350 -1.0023232322 0.7851011628
H 0.4835106850 -0.6419359722 1.7333814828
