17
Molecule 6868 / 7211 from QM7b dataset
O -2.2813392018 -2.2215378696 -1.2706645757
C -1.3849742718 -1.9743523496 -0.1703232257
C -1.0212975618 -0.5238025096 -0.1672430657
C 0.2355435882 -0.0629881096 -0.2083810857
C 0.6283568082 1.3908629204 -0.1619182057
C 1.4495105482 1.7210831404 1.0589559543
C 2.7074316682 2.1755504904 1.0379951443
H -2.6519072918 -3.1130895596 -1.1557162457
H -0.4713664418 -2.5922407396 -0.2522202157
H -1.8814730618 -2.2301590996 0.7862276943
H -1.8622744418 0.1779383704 -0.1243831757
H 1.0641793382 -0.7797589196 -0.2608079057
H -0.2844055918 2.0105844904 -0.1743276457
H 1.2098063282 1.6465199904 -1.0643123357
H 0.9550820682 1.5508935004 2.0220394043
H 3.2338788782 2.3512942904 0.0960228443
H 3.2517691582 2.3921991404 1.9582810943
