17
Molecule 3241 / 7211 from QM7b dataset
O -1.4507553892 0.8826230858 1.2201543715
C -1.5130287492 -0.5010793542 0.8016732915
C -0.9623296192 -0.6286062042 -0.6201188285
C 0.5427194308 -0.5324901342 -0.7763193085
C 1.2752704808 -1.6202728942 -1.0615848485
C 1.2013786508 0.8267305758 -0.6464301985
O 1.2416415408 1.3334345258 0.6901037515
H -1.7618425092 0.9352142658 2.1400271915
H -2.5650671392 -0.8343188042 0.8105358915
H -0.9325764592 -1.1379842342 1.4910316715
H -1.4568115192 0.1411265458 -1.2388118585
H -1.2948575392 -1.6064453342 -1.0019499085
H 0.8201007908 -2.6060698342 -1.1870151585
H 2.3587180308 -1.5575089742 -1.1820195785
H 0.6848607708 1.5412449058 -1.3204415185
H 2.2474500008 0.7573547058 -0.9775721585
H 0.3088752008 1.3732339358 1.0008298015
