17
Molecule 5248 / 7211 from QM7b dataset
C -2.0080466398 -0.9682030174 -0.0958947125
C -0.5016637398 -0.7507892374 0.0185714275
O 0.1881877402 -1.3788520474 -1.0870076325
C -0.0564935598 0.6992168626 0.1765336275
C -0.9043782498 1.7364317726 0.0023159675
C 1.3418706802 0.9681506926 0.5353694475
C 2.3224970302 0.0610165126 0.6925062875
H -2.5375055998 -0.5950405074 0.7925061975
H -2.2029343198 -2.0441571274 -0.1916480025
H -2.4239068298 -0.4707973674 -0.9849275425
H -0.1408822098 -1.3049847474 0.9021083375
H 0.0814753802 -0.7924971374 -1.8579631325
H -1.9567230398 1.5992064026 -0.2434013625
H -0.5543557498 2.7648970226 0.1111009075
H 1.5778931102 2.0263967626 0.6932645275
H 2.1632450102 -1.0031175374 0.5166256275
H 3.3254792002 0.3759691026 0.9819832275
