14
Molecule 5709 / 7211 from QM7b dataset
C -2.8497014494 -0.3079194856 -0.0496081337
C -1.3889534994 -0.5358850956 -0.3765501937
O -0.9665437194 -1.6095663656 -0.7743642337
C -0.4743682194 0.6810604144 -0.1928670537
C 0.9809798306 0.3471092744 -0.1635103037
N 1.7022818506 0.8412503344 0.7738457363
O 3.0522914406 0.4343096644 0.6466988763
H -2.9652360494 -0.2486448856 1.0441729463
H -3.4545854794 -1.1385733756 -0.4288104137
H -3.2071072694 0.6477110444 -0.4594495937
H -0.7544256894 1.2458408944 0.7087997763
H -0.6934210794 1.3477648244 -1.0497570937
H 1.4003400706 -0.3156805456 -0.9301980237
H 3.4647408006 0.8686926644 1.4148592163
