15
Molecule 5753 / 7211 from QM7b dataset
C -2.4031426730 0.0261988548 0.2491594178
C -0.9129546630 0.0242172848 0.0918141078
C -0.2287827330 1.1672784948 -0.0612551822
O 1.1447767470 1.2745297448 -0.2099990022
C 1.8357059770 0.0807423748 -0.1974761122
C 1.2750554070 -1.1252916052 -0.0531110422
C -0.2074004630 -1.3122476552 0.1174325178
H -2.8202421430 1.0419617348 0.2199393278
H -2.6973561930 -0.4378278352 1.2058530778
H -2.8841273030 -0.5651059252 -0.5483442922
H -0.6925898630 2.1533976548 -0.0847910522
H 2.9039111570 0.2525496748 -0.3222117622
H 1.9324204270 -1.9952619852 -0.0618158722
H -0.6175703630 -1.9713756252 -0.6743118122
H -0.4335448030 -1.8399621452 1.0662921578
