12
Molecule 1095 / 7211 from QM7b dataset
C -2.0602048496 0.3122683044 -0.0111891569
N -0.6072526096 0.3414376044 -0.0018979169
C 0.2331860004 1.4563238244 -0.0006924469
C 1.4982840104 0.9915795944 0.0053270831
O 1.4915108004 -0.3921909456 0.0074807331
C 0.1541789004 -0.8153149656 0.0021505731
O -0.2066737796 -1.9744245456 0.0016869731
H -2.4356387796 1.3407286144 0.0073702131
H -2.4356556296 -0.2278862956 0.8682964631
H -2.4275566996 -0.1928418656 -0.9148762669
H -0.1447609196 2.4718223544 -0.0034779269
H 2.4630197604 1.4818973444 0.0090549731
