22
Molecule 5582 / 7211 from QM7b dataset
C -2.1591995968 -1.4953703951 0.2235375461
C -0.6947165968 -1.1122154251 -0.0201002439
C -0.2075427668 -1.6548682851 -1.3690366139
C -0.5222560768 0.4124016749 0.0922966661
C 0.9154636832 0.9449135149 -0.0013453439
C 0.9271045132 2.4800488149 0.0398822761
N 1.7474042232 0.3066300049 1.0368746961
H -2.5106791068 -1.1376139351 1.2033570161
H -2.2956681368 -2.5867096351 0.1952187161
H -2.8160033668 -1.0577107351 -0.5463904839
H -0.0756629268 -1.5715022251 0.7687544161
H -0.7428945668 -1.1755894651 -2.2057072739
H -0.3825146768 -2.7388063751 -1.4397353239
H 0.8692354132 -1.4868381151 -1.5108611539
H -0.9490368768 0.7484103549 1.0568680661
H -1.1278252968 0.9023526449 -0.6915238039
H 1.3400824632 0.6311624849 -0.9711117539
H 0.5027845132 2.8471736249 0.9885430961
H 0.3341067432 2.9100112649 -0.7828754739
H 1.9526201332 2.8698374749 -0.0455379139
H 1.4094014432 0.5943614849 1.9616441861
H 2.7071057332 0.6555917249 0.9698290961
