16
Molecule 1187 / 7211 from QM7b dataset
C -3.3241383698 -1.1644998136 -0.0505983491
N -1.8718268498 -1.1349318436 0.1021640609
C -1.3457338998 0.2347813364 0.0499963609
C 0.1101132102 0.2709692664 0.0497571209
C 1.3288005502 0.3232967264 0.0231247009
C 2.7457610202 0.3241246064 0.0068985209
C 3.5208730202 1.4246043264 -0.0549160291
H -3.6654679698 -2.2079060736 -0.0778332091
H -3.6996664098 -0.6479978436 -0.9598993691
H -3.7935368998 -0.6848456536 0.8225626109
H -1.4321165698 -1.6804551536 -0.6427693591
H -1.7222794798 0.7771243664 0.9369868009
H -1.7148454298 0.8070648864 -0.8330216491
H 3.2213806802 -0.6617785936 0.0523086909
H 3.0881927202 2.4246105164 -0.0993929891
H 4.6070741202 1.3390477664 -0.0596639091
