18
Molecule 5039 / 7211 from QM7b dataset
C -2.3915768125 -1.1225011403 0.5022744325
C -0.8671064125 -1.1249768703 0.3203116125
N -0.3922630425 -1.9510490403 -0.8058974175
C -0.3322212125 0.3051268797 0.1588921325
C 1.2068411875 0.3737266397 0.1554267825
C 1.7223698675 1.7171037197 -0.0708860975
C 2.1297685975 2.8459807497 -0.2585352275
H -2.6938795925 -0.5400151803 1.3864758625
H -2.7738219725 -2.1466023703 0.6258856225
H -2.8867981725 -0.6806840603 -0.3774942875
H -0.4111870425 -1.5565851903 1.2305258525
H -0.8637804325 -1.6502938203 -1.6657220175
H -0.6687064125 -2.9253638103 -0.6613060075
H -0.7264192225 0.9384544697 0.9684546225
H -0.7162149625 0.7311243897 -0.7846301175
H 1.5888409375 -0.3131378603 -0.6163423675
H 1.5917615775 -0.0031449603 1.1188908225
H 2.4975953075 3.8368318097 -0.4283578775
