17
Molecule 6072 / 7211 from QM7b dataset
C -0.2543978482 -2.5175234067 -0.6071774676
C -0.8941878082 -1.2740713767 0.0179731124
C 0.0219870818 -0.0706650967 0.0436690924
O 1.1928980018 -0.2125076967 0.8490742824
C 0.2607502418 0.7583240133 -1.1969984976
C -0.5030184282 1.3495348933 -0.0231833476
O 0.0918091318 2.3289343733 0.7885958824
H -0.9490389882 -3.3688332967 -0.5927797076
H 0.6551423618 -2.8089751567 -0.0640074176
H 0.0300424918 -2.3281580867 -1.6526338676
H -1.2236644382 -1.4935834867 1.0507781224
H -1.8078271382 -0.9985739467 -0.5335447076
H 0.8927206118 -0.4689399967 1.7419763024
H -0.2789107882 0.4934351633 -2.1077874376
H 1.2761086818 1.1291002633 -1.3468065776
H -1.5775752582 1.5174199933 -0.1243778576
H 0.9185459618 1.9221009833 1.1221244824
