13
Molecule 4808 / 7211 from QM7b dataset
C -1.4159329318 -1.4987193959 -0.0660332084
C 0.0520334082 -1.2326297859 -0.4240075484
C 0.4180266982 0.2363248041 -0.3883849384
C 0.8307794382 0.9423519341 -1.4578979184
C 0.2961292582 0.8879241341 0.8847455616
N 0.1845842082 1.3747883641 1.9424347516
H -1.6255512318 -2.5767118159 -0.0878994884
H -2.0910606218 -1.0028182059 -0.7775068584
H -1.6528511918 -1.1288586759 0.9413733616
H 0.2792403582 -1.6151193759 -1.4299794384
H 0.7043856982 -1.7727159159 0.2818103416
H 0.9283652682 0.4607766241 -2.4316616784
H 1.0791670382 2.0004186741 -1.3837111884
