16
Molecule 4779 / 7211 from QM7b dataset
C 0.0855376480 -2.2079772031 -0.4808239778
C -0.6262817220 -1.0117272231 0.1312285522
O -1.7008836620 -1.0904216531 0.7340592622
N 0.0085184380 0.1839129669 -0.0362370778
C -0.3529729420 1.5067547569 0.4870409522
C 0.9813764480 2.0510837169 -0.1037216978
C 1.3069246380 0.6074366069 -0.5855382478
H 1.0675583480 -2.3668550531 -0.0105101678
H 0.2530465880 -2.0656203131 -1.5585930278
H -0.5348296920 -3.0958787231 -0.3244503978
H -0.4365213620 1.5306910169 1.5844475022
H -1.2776472720 1.9142101669 0.0520448022
H 0.8541498380 2.7766378769 -0.9150480078
H 1.6815486880 2.4543662669 0.6364890022
H 1.3977200380 0.4796338769 -1.6763983978
H 2.1749106380 0.1353734169 -0.0959093478
