17
Molecule 5509 / 7211 from QM7b dataset
C -0.3840812540 -2.0305483600 -1.5594992881
C -0.8285662740 -1.3224744000 -0.2807342981
C -0.2966468040 0.1173899000 -0.1508578781
N -0.8587373640 0.7773205400 1.0290165519
C -0.4791117140 2.1863074900 1.1723297519
C 1.1874087160 0.1321834300 -0.1540689681
N 2.3519091960 0.1723459600 -0.0743157981
H -0.8004948540 -3.0458826800 -1.6025517181
H 0.7105345460 -2.1148179900 -1.6156112781
H -0.7281358440 -1.4914356100 -2.4550298981
H -0.5024441340 -1.8960689100 0.6026550619
H -1.9248833840 -1.2503638300 -0.2306821281
H -0.6208726340 0.6935581200 -1.0369345981
H -0.5718696540 0.2577057300 1.8634335919
H -0.8837079840 2.7569296500 0.3227315919
H 0.6124684160 2.3621733000 1.2182810819
H -0.9368133140 2.5833883600 2.0877871019
