23
Molecule 7102 / 7211 from QM7b dataset
C -1.4008604339 -2.9726184263 -1.2307094096
C -0.2216416539 -2.1952872663 -0.6432830096
C -0.5060911839 -0.6998475363 -0.4691182596
C 0.6635920361 0.0657490137 0.1575723304
C 0.4866635261 1.5921806037 0.2488459904
C -0.7047827639 1.9979327737 1.1257933004
C 1.7747003261 2.2511241737 0.7581307704
H -1.1614320939 -4.0390516763 -1.3513440096
H -1.6837427739 -2.5798121463 -2.2195597896
H -2.2867355939 -2.9008408563 -0.5808748696
H 0.6640735461 -2.3215632463 -1.2899914596
H 0.0531613661 -2.6264659363 0.3350858604
H -1.4121688539 -0.5803611463 0.1492448804
H -0.7467163239 -0.2596661363 -1.4542567896
H 1.5760153561 -0.1429281863 -0.4294426496
H 0.8577881361 -0.3319442763 1.1715683804
H 0.2965466161 1.9649469137 -0.7756433696
H -0.5721385739 1.6301622037 2.1567126704
H -1.6560568539 1.5995593037 0.7460604904
H -0.8002719539 3.0930801737 1.1738203304
H 2.0038974861 1.9163521937 1.7830686204
H 1.6822092761 3.3473366637 0.7793332304
H 2.6360921261 1.9957961437 0.1228282004
