15
Molecule 703 / 7211 from QM7b dataset
O -2.6579170848 -0.2787557285 -0.3180915160
C -1.2938234948 -0.6110020985 -0.0981916560
C -0.4004338348 0.6262618715 0.0046537940
N -0.8226173848 1.8412216515 0.0017200240
N 0.9644204952 0.4029247115 0.0958065040
C 1.6369673652 -0.8084459185 0.1771352140
C 2.9711940152 -0.9447514985 0.2836060340
H -2.7479604848 0.0182710315 -1.2412991360
H -0.9125598948 -1.2841398185 -0.8864953560
H -1.2643489648 -1.1683886185 0.8510988840
H -1.8497673848 1.8333595215 -0.0388103360
H 1.5103776352 1.2628396415 0.1611998240
H 0.9981174652 -1.6918492585 0.1534968140
H 3.6421134152 -0.0848998385 0.3136812040
H 3.4113188152 -1.9365455085 0.3459542140
