17
Molecule 5370 / 7211 from QM7b dataset
O -2.6580277228 -1.9271676744 -1.0662084018
C -1.7981825828 -1.4361685844 -0.0311397818
C -0.7494092828 -0.5648118444 -0.7056784618
O 0.1185935972 -0.0682996344 0.3062398282
C 1.1449682172 0.7668255356 -0.2337559818
C 2.0752575772 1.1745840156 0.8653269682
C 2.4377929472 2.4367593856 1.1131627182
H -3.3417186328 -2.4775800444 -0.6510592118
H -1.2954306128 -2.2603991744 0.5061588382
H -2.3534616628 -0.8303512444 0.7071234782
H -1.2465047028 0.2652931856 -1.2449759318
H -0.1882116728 -1.1634375744 -1.4502845918
H 0.7053314872 1.6580163556 -0.7241181618
H 1.7053314872 0.2028686656 -1.0099413818
H 2.4792089672 0.3551513056 1.4685017782
H 2.0378523272 3.2695746256 0.5290342082
H 3.1505147672 2.6814713256 1.9018167982
