13
Molecule 6360 / 7211 from QM7b dataset
O -1.3921557613 0.3092447653 1.7518882325
C -0.6794796513 0.0756542753 0.7932698525
C -0.4406010613 -1.2903270947 0.1365930925
C 0.9391568387 -1.1884018647 -0.5482695575
C 1.1692843287 0.3036496553 -0.7267494175
O 0.0640144387 0.9671398253 -1.3590048875
C 0.2001980987 1.0771644453 0.0849756225
H -1.2476487013 -1.4627453947 -0.5910682075
H -0.5065231313 -2.0809478347 0.8933850925
H 1.7295050687 -1.5989615647 0.0990892025
H 0.9882487987 -1.7181489447 -1.5100882575
H 2.1575515087 0.7071701753 -0.9638670575
H 0.3726457187 2.0761203353 0.4905649125
