18
Molecule 3934 / 7211 from QM7b dataset
N -1.4587638392 0.2026232411 1.5805633133
C -0.0247154292 0.1583864311 1.2361254933
C 0.2666806608 -1.1704710489 0.4970283833
C -0.0157896492 -0.8908660089 -0.9801603267
C 1.0809159508 -0.2285615389 -1.7822219967
C -0.0155187592 0.6150393611 -1.1730743267
C 0.2669076108 1.2579682611 0.1859602833
H -1.6741236592 1.0878004511 2.0474437233
H -1.6741597392 -0.5360168489 2.2557777033
H 0.6377090508 0.2713830311 2.1186328733
H -0.3675370492 -1.9812984989 0.8854815533
H 1.3143292108 -1.4758093289 0.6556487633
H -0.7393435592 -1.5134539989 -1.5071903767
H 2.0783901408 -0.1716765089 -1.3369284167
H 1.0768413408 -0.3671189689 -2.8645844667
H -0.7388248292 1.0848767211 -1.8401552867
H 1.3145325008 1.5934529711 0.2626071333
H -0.3673488392 2.1405255511 0.3573785433
