16
Molecule 3769 / 7211 from QM7b dataset
N -2.1651884328 -1.2647406700 0.3523064940
C -0.7176378528 -1.0482983800 0.4413302140
C -0.3374412428 0.4123646600 0.5034907040
C -1.2300505828 1.4027643300 0.6228570140
C 1.1574297772 0.6954927800 0.4420197340
C 1.7944224472 0.2732419000 -0.8043166560
C 2.3235689772 -0.0767331400 -1.8395356960
H -2.3676876228 -2.2610206800 0.4515260040
H -2.4945556428 -0.9959182200 -0.5788572560
H -0.1367134428 -1.5097814400 -0.3832327460
H -0.3583235628 -1.5356403200 1.3666592640
H -2.2945104928 1.1817222600 0.7054569440
H -0.9146780328 2.4469218100 0.6580387640
H 1.6612599572 0.1816023200 1.2819189140
H 1.3290797572 1.7730183400 0.5910348540
H 2.7906989772 -0.3807122800 -2.7537620860
