15
Molecule 2656 / 7211 from QM7b dataset
N -0.8783142024 -1.5249868127 0.8249969318
C -1.3383235724 -0.5232276927 0.0241671018
O -2.4160319724 -0.5441554927 -0.5668771182
C -0.4039431324 0.6904275773 -0.0627929482
N 0.9562064776 0.4067518873 0.3981694118
C 1.9323115376 0.0998799873 -0.6604788282
C 1.9631368276 1.4141630373 0.0437545418
H 0.0229569976 -1.4154065627 1.2835961418
H -1.4505041624 -2.3504634427 0.9641044718
H -0.8368066124 1.4699714073 0.5852608718
H -0.4520334924 1.0650082173 -1.1030930682
H 1.5698751476 0.0923892173 -1.6931223282
H 2.6660541076 -0.6711050727 -0.4168146582
H 2.7186231876 1.6144838673 0.8061864918
H 1.6257547176 2.2885533373 -0.5211645882
