19
Molecule 5323 / 7211 from QM7b dataset
C -1.5341185935 0.2101293190 1.6347868912
C -0.0545807235 0.1583529990 1.2353215212
C 0.2792689565 -1.1712839210 0.5052323212
C 0.0393341165 -0.8932158410 -0.9811392588
C 1.1545300865 -0.2250923110 -1.7504545288
C 0.0404935865 0.6171664490 -1.1746396588
C 0.2806185065 1.2606811890 0.1937366012
H -1.7847750835 1.1688090090 2.1134037512
H -1.7852765935 -0.5964461910 2.3399945612
H -2.1811732835 0.0967881890 0.7503418012
H 0.5616370565 0.2742426390 2.1424768012
H -0.3516107235 -1.9961319310 0.8689557812
H 1.3261792665 -1.4668072810 0.6854123412
H -0.6593517335 -1.5233031410 -1.5336788888
H 2.1373833265 -0.1649224610 -1.2745796288
H 1.1829024965 -0.3635979710 -2.8324111388
H -0.6572755735 1.0885464090 -1.8684697488
H 1.3277255465 1.5913167990 0.2939797712
H -0.3496403135 2.1510786290 0.3375112612
