14
Molecule 2911 / 7211 from QM7b dataset
C -2.1955554928 -1.4332492028 -1.2809448515
C -1.5931351628 -0.9527031328 -0.1880493915
C -0.7672567828 0.3002069072 -0.1650243915
N 0.5803554872 0.0166004472 0.3287470685
N 1.2883774372 1.1003342872 0.7419699585
C 2.5744737172 1.0397244972 0.7353357185
H -2.8040551128 -2.3379232128 -1.2487657815
H -2.1075218228 -0.9273921528 -2.2460527815
H -1.6850618828 -1.4795191828 0.7674479985
H -1.1965132328 1.0315784672 0.5378742485
H -0.7599225428 0.7714423972 -1.1669502415
H 1.1001309472 -0.6633165228 -0.2430670515
H 3.1216670772 1.8954991172 1.1304822185
H 3.1389884272 0.1672135372 0.3661096985
