16
Molecule 5833 / 7211 from QM7b dataset
C -1.3199872183 -0.0254836417 -1.0970635614
C 0.1034950317 -0.0528391717 -0.5969702414
C 1.1633067317 -0.6933132317 -1.4020706014
O 1.0510042117 0.7432890883 -1.3635395014
C 0.3300766517 0.0454545583 0.8887250686
C -0.6003330783 0.7420834883 1.8199983286
N -0.5769091783 -0.7352914917 1.7611770086
H -1.3520407583 -0.2277099517 -2.1744635914
H -1.7706946983 0.9621810083 -0.9226326014
H -1.9190218583 -0.7796503717 -0.5682097714
H 0.9005142017 -1.1581449717 -2.3590361214
H 2.0495038017 -1.1062038917 -0.9058813914
H 1.3915175017 0.0833122383 1.1550593686
H -1.5187812783 1.1950714383 1.4418290886
H -0.1597710083 1.2476625383 2.6826200586
H -0.0502440583 -1.1112023117 2.5550779586
