20
Molecule 6808 / 7211 from QM7b dataset
C -1.4002162325 -0.7587484679 -1.6455327114
C -1.4794823025 -0.1239478979 -0.2813583114
C -2.2934333225 -0.6032749979 0.6726503886
C -0.6198085325 1.0998649421 -0.0489191314
C 0.8988938875 0.8748272021 -0.1798388714
C 1.4635172775 -0.1190146479 0.8339169086
N 2.9302748275 -0.1890277179 0.7213875786
H -1.6429727025 -0.0265942979 -2.4334211214
H -2.0923834625 -1.6059325279 -1.7363479114
H -0.3842522525 -1.1254547179 -1.8628948914
H -2.9277432425 -1.4750551879 0.4981699986
H -2.3527140525 -0.1339006479 1.6569530186
H -0.8402190025 1.5098298821 0.9500654386
H -0.9124154225 1.8762925721 -0.7785105514
H 1.4188154675 1.8370167921 -0.0501521314
H 1.1411684375 0.5316990321 -1.2013162414
H 0.9532403475 -1.0955581479 0.7136186886
H 1.2235502375 0.2335030921 1.8516292586
H 3.1856941675 -0.5879091179 -0.1866260414
H 3.3014830375 -0.8329794979 1.4236098086
