15
Molecule 2826 / 7211 from QM7b dataset
C -2.3146080983 0.3502347722 -0.5153322848
C -0.7966610683 0.3992828022 -0.5402187648
C -0.0497307583 1.4196438622 0.3804824652
C 0.9819124617 0.3080783822 0.5899861752
O 2.1930511417 0.2833377922 0.6670820352
C -0.0118526583 -0.7721694378 0.1667196752
O 0.4548828417 -1.8933176978 -0.5364954448
H -2.6874320783 -0.5055176478 -1.0965402648
H -2.7521965683 1.2641174222 -0.9428230548
H -2.6869167183 0.2487493222 0.5158987852
H -0.4157174483 0.4935390122 -1.5690458648
H -0.6147643383 1.6442993822 1.2982821752
H 0.3276117117 2.3521478122 -0.0558473648
H -0.6107948883 -1.1083433578 1.0347675152
H 1.4023791917 -1.7395749878 -0.7192082448
