18
Molecule 4704 / 7211 from QM7b dataset
C -2.1481233133 -0.2934620551 -0.0023128741
C -0.6553313033 -0.0908551951 -0.0382185541
C 0.2803540567 -0.7232981551 -1.1094447041
C 1.3046145867 -0.5081286751 0.0297269559
C 1.4161272667 1.0239169449 0.1171377859
C -0.1086451333 1.3515999649 0.0624352659
N 0.1986963667 -0.7532287651 1.0480575059
H -2.5681789733 0.1169807049 0.9283195959
H -2.4147107133 -1.3595680651 -0.0586435141
H -2.6289569133 0.2200925949 -0.8484658941
H 0.4231989967 -0.2086129851 -2.0756551441
H 0.0539325767 -1.7879878951 -1.2685306341
H 2.2237184167 -1.1001634551 0.1259533859
H 1.8813959067 1.3377807349 1.0605137859
H 1.9843609867 1.4510907349 -0.7211383841
H -0.3935856433 1.9602148949 -0.8079022341
H -0.4689581933 1.8444079649 0.9756061559
H -0.0170679733 -1.7602708451 0.9975970859
