17
Molecule 4498 / 7211 from QM7b dataset
C -1.3514419074 -1.6438446509 0.9167331645
C -1.2677018774 -0.9078668909 -0.4305632755
C -0.7918067574 0.5214815691 -0.2965316255
C -1.6470484174 1.5682328791 -0.3393784855
C 0.6303694526 0.7718560591 -0.0999019955
N 1.4973463826 -0.1888578109 -0.0801401555
N 2.8184500626 0.1473298791 0.0162864045
H -1.7141348374 -2.6719832309 0.7730209745
H -2.0422590374 -1.1309607909 1.6018538545
H -0.3650259674 -1.6951810909 1.3968434245
H -2.2571567074 -0.9050828209 -0.9125862755
H -0.5773844574 -1.4513260809 -1.0938421255
H -2.7165116674 1.4200493791 -0.4951182455
H -1.2973672174 2.5961468591 -0.2220262255
H 0.9452904926 1.8260545091 0.0201907345
H 3.3583688626 -0.6122479509 0.4243755945
H 3.0213824626 1.0560729491 0.4521178545
