17
Molecule 3098 / 7211 from QM7b dataset
C -3.1035492829 -0.9816263538 -0.3395250193
C -1.6206371829 -0.8404663438 -0.1951865693
C -1.0054405529 0.0693521362 0.5738490707
C 0.4658482071 0.2027676962 0.7020142907
O 1.2943877571 -0.7071791938 -0.0530567893
C 1.3326671271 0.6948995162 -0.3995043093
C 2.6288296171 1.4189556462 -0.1586516493
H -3.4118059929 -0.8608899138 -1.3907886493
H -3.6465608529 -0.2406416838 0.2637629107
H -3.4377129429 -1.9860686538 -0.0333757293
H -0.9919067229 -1.5401140538 -0.7569234893
H -1.5952908829 0.7719971762 1.1743692307
H 0.8331251771 0.3913187762 1.7212710807
H 0.8196434671 0.9193387662 -1.3445846193
H 3.0475848471 1.1572219562 0.8223179207
H 2.4746201771 2.5076194062 -0.1993362093
H 3.3668940771 1.1543579962 -0.9302330193
