16
Molecule 5390 / 7211 from QM7b dataset
C -2.1756063693 -0.4480537941 0.3383491865
C -0.6513234393 -0.5267786441 0.2100639965
C -0.2340694693 -1.3080415541 -1.0387694035
C -0.0494762493 0.9013576359 0.2135172765
C 1.4073855307 0.9364800559 0.2304704765
C 2.6217495607 0.9451631159 0.2479222365
H -2.4795995193 0.0843635259 1.2519887265
H -2.6188027793 -1.4537901541 0.3712115265
H -2.6153613193 0.0808219959 -0.5227554135
H -0.2513731393 -1.0491145741 1.0965999565
H -0.6270502393 -0.8263140341 -1.9490369135
H -0.6267086493 -2.3347911041 -1.0077963435
H 0.8597744007 -1.3615316241 -1.1292024135
H -0.4297996793 1.4529578159 1.0902822765
H -0.4152539093 1.4466273459 -0.6755713035
H 3.6922174507 0.9600099159 0.2649572865
