13
Molecule 3306 / 7211 from QM7b dataset
C -2.2357688984 -0.2875610447 0.6919540195
C -0.8326158084 -0.7177780547 0.3668049695
O -0.4276815184 -1.8669455847 0.4648317695
C 0.1291071516 0.4047995753 -0.1248956505
O -0.3002750884 1.5456928153 -0.2686612905
C 1.5266807516 -0.0101199947 -0.3928417605
C 2.4394097416 0.8770948053 -0.8185849105
H -2.2172729384 0.4584775553 1.5003124395
H -2.8319289084 -1.1565008947 0.9865160495
H -2.6843051684 0.2229777753 -0.1718547005
H 1.7669028016 -1.0607143747 -0.2249952505
H 2.1581968116 1.9210066053 -0.9766221305
H 3.4711826316 0.5861637653 -1.0173402405
