18
Molecule 7115 / 7211 from QM7b dataset
C -2.6232076401 -1.2013421401 0.0089262003
C -1.1232430201 -1.1702820001 -0.1142717697
O -0.5787827801 -1.2049511701 -1.4545861897
C -0.3840379201 -0.0138331001 -0.6566647497
C 1.0328102899 0.3194554399 -0.2580431697
C 1.0975314899 1.3297598799 0.8908956303
N 2.4908550199 1.7239403499 1.1472229803
H -2.9322366101 -0.9133536101 1.0251623003
H -3.0069050201 -2.2134513501 -0.1861724997
H -3.0884254001 -0.5130941701 -0.7096315297
H -0.5771949001 -1.8155636801 0.5886762303
H -0.9883263401 0.8393070999 -0.9987963797
H 1.5728235999 0.7351617499 -1.1241052797
H 1.5496454799 -0.6129294501 0.0247353603
H 0.5757716299 0.9061502099 1.7741590403
H 0.5437065999 2.2399669399 0.6051713003
H 3.0218996399 0.9170229599 1.4868377203
H 2.5243992299 2.4202617399 1.8950395403
