13
Molecule 1735 / 7211 from QM7b dataset
O -1.8661768042 -1.5039160809 0.4269340499
C -0.9504036042 -1.6840131109 -0.3572940901
C 0.1717479758 -0.6956230709 -0.5635967501
C -0.2688845742 0.7840252991 -0.8452853501
C 0.7550123358 1.2177064991 0.2093503799
O 1.3243665858 2.2568489991 0.4431172899
C 0.8994860858 -0.2126198109 0.7404281599
H -0.9068729042 -2.6179211209 -0.9717891501
H 0.8827311658 -1.0608040809 -1.3166678201
H -1.2944502142 0.9571967691 -0.4818886601
H -0.1562795942 1.1852263391 -1.8602393501
H 1.9125278058 -0.5795554109 0.9475089399
H 0.2550761758 -0.3644606709 1.6210512299
