19
Molecule 4168 / 7211 from QM7b dataset
C -0.6148058142 -1.5827348075 -1.9753451194
C -1.1239463442 -1.0507894875 -0.6319206994
C -0.6133621542 0.3565310725 -0.2457340994
N -1.2674286042 0.9220545425 0.9408990006
C 0.8951639558 0.3532667325 -0.0279090094
C 1.5860196058 1.3367806725 0.8452103706
N 1.3494099058 -0.0487561575 1.3251936406
H -1.1031699742 -2.5332878075 -2.2333374494
H 0.4693316158 -1.7683790675 -1.9652929794
H -0.8239385742 -0.8719210375 -2.7905066794
H -0.8609036942 -1.7487693175 0.1817507406
H -2.2263032242 -1.0076014875 -0.6599696894
H -0.8161929742 1.0377658225 -1.0952332794
H -0.9840906242 0.3628064625 1.7532228806
H -2.2810629242 0.8301144325 0.8509895706
H 1.4730357258 -0.0205182575 -0.8785562594
H 0.9873740358 2.0925485025 1.3556948106
H 2.6042399958 1.6298874125 0.5766764206
H 2.2133960158 -0.5940594475 1.2561047706
