15
Molecule 3311 / 7211 from QM7b dataset
C -1.5565643232 -0.0094527402 1.0747013096
C -0.0257436632 0.0645869898 0.9470748796
C 0.5081997468 -0.5538729402 -0.3323061904
N -0.2703210232 -1.1503342502 -1.1568365504
N 0.2892387068 -1.7727247002 -2.2476104904
C 0.4681147068 1.4403163098 1.0708839696
C 0.8758713568 2.5802152998 1.1652254196
H -1.8718121132 0.4147309198 2.0361417096
H -1.8888481532 -1.0527132202 1.0091784296
H -2.0375312632 0.5525623898 0.2642105496
H 0.4164621768 -0.5072659102 1.7880856396
H 1.5963142668 -0.4670604802 -0.5035707104
H 1.1880725068 -1.3823406502 -2.5582005504
H -0.3858055332 -1.8139145902 -3.0085374104
H 1.2314573868 3.5866566798 1.2503452996
