20
Molecule 4145 / 7211 from QM7b dataset
C -2.8121363005 -1.0196474923 -0.4975110462
C -1.2839041005 -0.9977279123 -0.4399175662
C -0.7259088705 0.3494399677 0.0317043838
C 0.7941096395 0.4192534277 0.0496796738
N 1.3782920395 0.2742673177 -1.2773486462
C 1.4573551695 1.2950195877 1.1015733638
C 1.5247032195 -0.2210763523 1.1983902738
H -3.1880997305 -1.9980179823 -0.8305346762
H -3.1960409305 -0.2609645823 -1.1975632262
H -3.2558398205 -0.8114461023 0.4890999738
H -0.8599677905 -1.2259234223 -1.4298367562
H -0.9252082305 -1.7911068923 0.2378730338
H -1.1048630305 0.5774748877 1.0425368738
H -1.1089319905 1.1547746877 -0.6234043262
H 2.3837978195 0.1053692777 -1.2087424262
H 1.2643586795 1.1475042477 -1.8013450862
H 0.8290284695 1.8285922677 1.8178021138
H 2.3703752495 1.8204307577 0.8158404138
H 2.4830725195 -0.7030082123 0.9937957238
H 0.9349619695 -0.7151175123 1.9724043938
