16
Molecule 2862 / 7211 from QM7b dataset
N -2.1419836942 -0.2555043666 0.5620484407
C -0.7057098242 -0.2182850766 0.7528436507
C 0.0758896558 -0.8654113266 -0.3761456093
O -0.6629609542 -1.4428807766 -1.4169918893
C 0.1022559458 0.6392154634 -0.2291573793
C 1.2765433458 1.4053992034 0.2565686807
C 2.5320831058 0.9500250634 0.3634285907
H -2.5765999242 0.6386549234 0.7993002407
H -2.5655152242 -0.9696543966 1.1588060907
H -0.2993056842 -0.2928072966 1.7677317107
H 0.9709974558 -1.4399774766 -0.1326626893
H -1.5941351242 -1.1896699066 -1.2134766493
H -0.5292654942 1.1588547734 -0.9578496993
H 1.0669407758 2.4379749434 0.5625911307
H 2.8085152558 -0.0622745666 0.0610127307
H 3.3295680858 1.5848158234 0.7509155607
