11
Molecule 1398 / 7211 from QM7b dataset
C -2.5149290143 -0.3008633804 0.5148604043
C -1.3055766143 -0.2663981604 0.4647631443
C 0.1679105457 -0.2376325104 0.4269691843
C 0.6993261857 -0.9894755504 -0.7243842657
C 1.1453796957 -1.6206029804 -1.6565609957
C 0.6869140157 1.1417451696 0.4647817443
C 1.1230858457 2.2702342296 0.5147660643
H -3.5847096143 -0.3288298504 0.5546960643
H 0.5280009357 -0.7471796704 1.3439702543
H 1.5374338057 -2.1753256604 -2.4844648557
H 1.5066109157 3.2692942796 0.5546268543
