16
Molecule 1641 / 7211 from QM7b dataset
C -1.2778559083 -1.8577406253 1.2317091507
C -0.2354865183 -1.0686992653 0.4473567307
O -0.0659820483 -1.6256121153 -0.8820570493
C -0.5589831383 0.4321153347 0.4056846007
C 0.5074569117 1.3698518947 -0.1773001593
N 1.2394916717 0.8543118047 -1.2077780693
O 0.6600139017 2.5119800947 0.2551428307
H -1.3312639183 -1.5113092653 2.2735019007
H -1.0260881683 -2.9267468053 1.2328515007
H -2.2794071483 -1.7347997153 0.7880327307
H 0.7532967617 -1.2095484153 0.9132401207
H -0.9482491783 -1.6636437253 -1.2962110793
H -0.7542504683 0.7998501647 1.4226582707
H -1.4923829183 0.5883275047 -0.1647918193
H 1.0786793417 -0.1026429553 -1.5220290893
H 1.9601810917 1.4362227147 -1.6221942393
