11
Molecule 3510 / 7211 from QM7b dataset
N -2.9665406679 0.0642235511 -0.0113228675
C -1.7964326079 0.0364191511 -0.0068698175
C -0.3805150179 -0.0054678889 -0.0014810275
C 0.4642555021 1.1032958111 0.0020185325
N 1.7479879021 0.6327927111 0.0068478125
C 1.7554773821 -0.7487482589 0.0065594225
C 0.4462662521 -1.1771307989 0.0014241025
H 0.2341737921 2.1622815911 0.0013834125
H 2.5757416921 1.2185173111 0.0101688725
H 2.6858285921 -1.3053606689 0.0100090425
H 0.0998162221 -2.2047601589 -0.0001432175
