17
Molecule 4768 / 7211 from QM7b dataset
C -2.5554549351 0.1137503857 -0.0687276272
C -1.0628531151 0.0953835757 -0.1568957672
C -0.2628998451 -0.9854363043 -0.2271364872
C 1.1988352049 -0.6260204743 -0.1973479272
O 1.8177305549 -1.0249488643 1.0499890728
C 1.1906843849 0.9071405757 -0.4372468372
C -0.2543610751 1.3761608657 -0.1539330872
H -2.9772777151 -0.8997507043 -0.0567516972
H -2.9935624951 0.6611096157 -0.9190872272
H -2.8884163051 0.6379425357 0.8422078628
H -0.6060895451 -2.0219878943 -0.2204717372
H 1.7947292649 -1.1516772143 -0.9592244372
H 1.1854950149 -0.8013819243 1.7578922628
H 1.4501563749 1.1114244957 -1.4866092472
H 1.9478558349 1.3969686157 0.1895333828
H -0.6180235251 2.0856985457 -0.9153376972
H -0.3604150551 1.8953730957 0.8156623528
