20
Molecule 1368 / 7211 from QM7b dataset
C -2.0995467055 -2.5158749170 -0.4020044745
O -0.8196993355 -1.9875838070 -0.0931125345
C -0.8201222155 -0.5633011970 -0.0961739945
C 0.6036412245 -0.1009468170 0.2004663355
N 0.7017971245 1.3454300030 0.4022115055
C 1.9833432545 1.6934652530 1.0091164955
C 0.5137579045 2.0913861530 -0.8400617245
H -2.0163995955 -3.6095028370 -0.3652977745
H -2.4312182155 -2.2126457770 -1.4138216145
H -2.8630717055 -2.1871382970 0.3287192955
H -1.5068926455 -0.1683531670 0.6788820655
H -1.1728903455 -0.1931404370 -1.0794823745
H 1.2818830145 -0.4587134470 -0.6078288045
H 0.9218960145 -0.5980773270 1.1296624955
H 2.0956804545 1.1693625930 1.9687985155
H 2.0171523045 2.7752775230 1.2035054555
H 2.8548146845 1.4325134930 0.3664279855
H -0.4816057755 1.8997236230 -1.2617515945
H 1.2741038045 1.8363466830 -1.6135081345
H 0.5851220445 3.1686369630 -0.6329416045
