15
Molecule 4554 / 7211 from QM7b dataset
C -2.2151051244 0.2219352742 -0.7947050553
N -0.7530072744 0.2262202742 -0.8167704153
C -0.2003825244 1.3733286042 -0.0532136753
C 1.1800418356 0.8921653242 0.3802510147
C 0.9924553956 -0.6206970258 0.5040795447
O 1.7676009556 -1.4485962858 0.9627670547
N -0.2484296744 -0.9009083158 -0.0477693653
H -2.5952958444 -0.6520165158 -1.3414785353
H -2.5622923444 1.1228665942 -1.3190125853
H -2.6262376144 0.2140416342 0.2342379447
H -0.8245118344 1.5776893042 0.8415222347
H -0.1965238544 2.2637311942 -0.6948227153
H 1.9432701856 1.0582379442 -0.3962200853
H 1.5414858756 1.3314787042 1.3165251047
H -0.3527010644 -1.8048353458 -0.5095803053
