15
Molecule 1376 / 7211 from QM7b dataset
N -1.8364940355 -1.5892344471 0.7989360759
C -0.7041441755 -1.5441718671 0.1767130859
N -0.0422142755 -0.3717910071 -0.0278890241
C 1.2406194345 -0.2416541971 -0.7227898841
C 1.4875876845 1.2408230529 -0.6537550941
C 0.4951884445 1.8713669129 -0.0148947341
C -0.5671982355 0.9135941229 0.4419261259
H -2.1644950455 -2.5581770371 0.8462748259
H -0.1656001255 -2.4123986871 -0.2431479341
H 1.1846234445 -0.6007596871 -1.7686049741
H 2.0440124045 -0.8159809171 -0.2222697441
H 2.3753665045 1.7033900529 -1.0825395941
H 0.4344297645 2.9434360129 0.1679065659
H -0.7088823755 0.9074205529 1.5383441259
H -1.5608153055 1.1204997429 0.0035103659
