19
Molecule 5703 / 7211 from QM7b dataset
C -0.5452659303 -1.5556660244 -1.5420892196
C -0.3771550703 -1.0837761844 -0.0910523496
N 0.3481987697 -2.0289122144 0.7799781504
C 0.3391661097 0.2621308756 -0.0207963496
C -0.2623615503 1.5182316356 -0.7040260996
C 0.1981316297 2.2799967256 0.5618644404
N 0.2384672797 0.9784804456 1.2774132604
H -1.1258562603 -0.8391507944 -2.1437031996
H -1.0661957703 -2.5238034544 -1.5771385596
H 0.4365092897 -1.6851121544 -2.0268190696
H -1.3707915103 -0.9337445844 0.3651389904
H 1.2072149197 -2.3314650744 0.3084381904
H -0.2101212803 -2.8747585944 0.9172107204
H 1.3914961397 0.1223048456 -0.3572251696
H -1.3579842003 1.4591934856 -0.7720174796
H 0.1555572097 1.8268341656 -1.6693693096
H 1.1885324097 2.7506601556 0.4094272904
H -0.4873258903 3.0230633056 0.9980762804
H 1.0172114697 0.8334989156 1.9228389104
