18
Molecule 6988 / 7211 from QM7b dataset
C -2.0619079279 -0.8532140535 0.0503337311
C -0.5291688479 -0.8113156435 -0.0440178889
N 0.0093490821 -1.4888467835 -1.2323714089
C 0.0219289121 0.6441525265 -0.0163545489
C -0.5172078679 1.4816854965 1.1616417411
C 1.4855076021 0.6553061065 -0.0027360589
C 2.6956130721 0.7145932565 0.0766106411
H -2.4419723779 -0.4611237535 1.0047849711
H -2.4110097179 -1.8920568835 -0.0411499889
H -2.5213365879 -0.2726992335 -0.7667667089
H -0.1059077779 -1.3303439235 0.8340475811
H -0.4136461579 -1.0898467135 -2.0767018089
H -0.2606084779 -2.4751262935 -1.2189430689
H -0.3095044679 1.1277490065 -0.9570238589
H -0.2872354079 0.9938326765 2.1201137211
H -1.6035195079 1.6212001965 1.0886880911
H -0.0442384079 2.4718656665 1.1671610211
H 3.7649456621 0.7412306065 0.1195242111
