15
Molecule 6198 / 7211 from QM7b dataset
C -2.1047374119 0.2250071546 0.4829060209
C -0.7818419619 0.3062848746 0.2817034809
C 0.1174021781 1.5181105746 0.2639759209
C 1.3308677881 1.0770580846 -0.5911858591
C 1.4788840581 -0.4254457454 -0.3031462291
C 0.0544410481 -0.9090190254 -0.0270469491
O -0.3349044219 -2.0665040354 -0.0546594691
H -2.5907808219 -0.7525037854 0.4437029509
H -2.7226734419 1.1022005246 0.6822646009
H 0.4495717881 1.7442363046 1.2928327509
H -0.3788008419 2.4196538746 -0.1206079591
H 1.1012251181 1.2268931546 -1.6576730391
H 2.2372553481 1.6532233246 -0.3639253891
H 1.9495743881 -1.0147251554 -1.1002936391
H 2.0637696481 -0.5989214654 0.6177371609
