15
Molecule 671 / 7211 from QM7b dataset
N 0.1441338604 -1.8079272936 -1.2723325127
C -0.6221882096 -1.5026012736 -0.1448280327
N -1.4007895196 -2.3220382736 0.4911016373
C -0.4816489396 -0.1498987136 0.4145122073
C 0.4027216304 0.7983794164 0.0265742073
C 0.4815942104 2.1141914164 0.6255230473
C 1.3591662404 3.0656350264 0.2501245973
H 0.3300339804 -1.0382100436 -1.9112040627
H -0.1287051496 -2.6585026136 -1.7575812227
H -1.4298661696 -3.2405057436 0.0237958273
H -1.1748837996 0.0478254264 1.2352730673
H 1.1293407304 0.5862067364 -0.7662781827
H -0.2280289196 2.3264647164 1.4323701973
H 2.0814768604 2.8889354264 -0.5503795727
H 1.3793524904 4.0433098364 0.7311839173
