17
Molecule 4650 / 7211 from QM7b dataset
C -1.1951227681 0.5779000229 1.8309315748
C 0.0433098419 0.1922411829 1.0217413148
C 0.0150005919 -1.2602792371 0.4777978448
C 0.8798146019 -1.2570417271 -0.8029320852
C 0.7630303019 0.1646920129 -1.3148546652
O -0.5976488081 0.6658064029 -1.3380977252
C 0.2665188719 1.0267853029 -0.2301448952
H -1.1255803581 1.6087920029 2.2089658948
H -1.3247732781 -0.0871411371 2.6972796948
H -2.0979644181 0.5036516829 1.2067931448
H 0.9440450219 0.3293642629 1.6499803348
H -1.0211140281 -1.5220669071 0.2198932848
H 0.3640991519 -1.9879126771 1.2231245248
H 1.9407015319 -1.4613184471 -0.5787432052
H 0.5489508919 -2.0033198771 -1.5406804152
H 1.4079687819 0.5355535529 -2.1175998152
H 0.5095485219 2.0921609729 -0.1594661752
