14
Molecule 2763 / 7211 from QM7b dataset
C -2.0240965754 0.0703271258 -0.3560255123
N -0.7119441254 -0.0338568042 0.2604108477
C 0.1629180946 -1.1220202142 -0.2325192123
C 1.5588270546 -0.6062950742 0.1425417677
C 1.2734108946 0.8783840258 0.1711327077
N 0.0127252346 1.1567546958 0.2335150177
H -2.6106740554 -0.8250637142 -0.1080659623
H -1.9669267254 0.1630688958 -1.4597621423
H -2.5345937354 0.9521401758 0.0483554177
H 0.0629650146 -1.2154947942 -1.3349129523
H -0.1049917254 -2.0803046142 0.2310028877
H 2.3432726346 -0.8994695242 -0.5672963423
H 1.8663493646 -0.9532764042 1.1458340577
H 2.0127746546 1.6757395558 0.2365854777
