17
Molecule 3238 / 7211 from QM7b dataset
C -2.9667731029 -1.8475793279 -1.2282818308
C -1.5043622229 -1.6047295379 -1.0129894708
C -1.0134643729 -0.5412263979 -0.3512038608
N 0.3330725371 -0.2780791879 -0.1228815408
C 0.8219607771 0.8308391521 0.5309503892
N 2.0757479971 1.0252079921 0.6955456692
C 2.4701308071 2.2292573521 1.3987737692
H -3.2154424429 -1.9110531279 -2.3004030808
H -3.5758819129 -1.0430692379 -0.7916202108
H -3.2930301729 -2.7977457979 -0.7740035608
H -0.8077373929 -2.3447032079 -1.4218689908
H -1.6845371229 0.2150588021 0.0662565892
H 1.0352899971 -0.9308490079 -0.4692116308
H 0.0310129071 1.5179110621 0.8889005792
H 3.0661096071 1.9654644621 2.2871152592
H 1.6175520671 2.8567934521 1.7282531992
H 3.1199694171 2.8429235321 0.7544389692
