14
Molecule 4549 / 7211 from QM7b dataset
C -2.0919778896 0.4108452021 0.0230354150
C -0.6036595696 0.4701893221 -0.0155207750
C 0.2884489004 1.5329605421 -0.0914742950
C 1.6143405904 1.0130673521 -0.0812380250
C 1.5268323804 -0.3660366379 0.0008945050
N 0.1826958504 -0.6652306579 0.0211889850
O -0.3217009896 -1.9532536679 0.2060095150
H -2.4946453296 1.4299424021 0.0682870050
H -2.4549556296 -0.1417743479 0.9026004850
H -2.5173467396 -0.0766543279 -0.8692983450
H 0.0003158604 2.5790849321 -0.1468890450
H 2.5379819804 1.5821031721 -0.1246823050
H 2.2705665204 -1.1522604179 0.0583195650
H -0.4510861696 -2.3039521479 -0.6989173250
