19
Molecule 5622 / 7211 from QM7b dataset
C -1.1897420355 -0.6734853587 1.1801386764
C 0.1792396845 -0.4509039987 0.5221366664
C 0.4033468745 -1.2739102987 -0.7293891236
C -0.4715522855 -2.0984703787 -1.3173260436
C 0.4523395445 1.0256862813 0.2317382364
C -0.4987285855 1.7327510913 -0.6969293936
C 1.5077652445 1.6485355113 0.7784353664
H -1.2832883455 -0.0524846287 2.0816276164
H -1.3114031555 -1.7253567587 1.4753129064
H -2.0179554455 -0.4169112387 0.5039883664
H 0.9544917445 -0.7675711087 1.2440879564
H 1.3981190345 -1.1543542887 -1.1737928036
H -1.4774771755 -2.2583673887 -0.9245641136
H -0.2029887455 -2.6511948087 -2.2186948136
H -1.5148351655 1.7745771713 -0.2738223336
H -0.5800686055 1.2015180213 -1.6581493436
H -0.1716126255 2.7620138913 -0.8924223236
H 2.1917442845 1.1270570313 1.4515559564
H 1.7192635545 2.6998570113 0.5720466164
