16
Molecule 576 / 7211 from QM7b dataset
O -1.3721401896 0.1351631870 1.6875048437
C -0.0183038896 0.1603673570 1.1950397937
C 0.1906764704 -1.1838830430 0.4641193537
C 0.0031461004 -0.8952570130 -1.0193606463
N 1.1133928604 -0.2306131830 -1.7344639163
C -0.0079386996 0.5861901970 -1.2250594463
C 0.1773703204 1.2672627670 0.1250049337
H -1.5513209996 0.9943941070 2.1078078537
H 0.6794307904 0.2827457870 2.0438977537
H -0.5460332996 -1.9076039930 0.8400228037
H 1.1906044004 -1.6019410230 0.6656155437
H -0.5906843796 -1.5785958630 -1.6302450163
H 1.9206826304 -0.1377220430 -1.1051106063
H -0.6098111596 1.0702745970 -1.9971933363
H 1.1770046704 1.7289951470 0.2023896337
H -0.5562029696 2.0743584770 0.2755601037
