17
Molecule 6592 / 7211 from QM7b dataset
C -3.2481199587 -1.1350719172 0.3838768194
C -1.7920848187 -1.1229065872 0.3824882694
C -0.5755187987 -1.1230743572 0.3748501594
C 0.8852991213 -1.1074269972 0.3725907394
C 1.4967196613 0.3094565028 0.3884541994
C 1.1636523413 1.1150825028 -0.8656452306
O 1.7681150813 2.4148498428 -0.8699768106
H -3.6560051187 -0.1129128072 0.3881385494
H -3.6425046987 -1.6547233372 1.2701075594
H -3.6422948187 -1.6469429772 -0.5070032806
H 1.2551479613 -1.6541342072 -0.5131493406
H 1.2545604413 -1.6671866372 1.2478683094
H 2.5909724113 0.2297309428 0.4813758394
H 1.1307606913 0.8472212528 1.2795672094
H 0.0679390813 1.1830254928 -0.9901463206
H 1.5639249713 0.6062992228 -1.7570214906
H 1.3528931413 2.9344694328 -0.1596122906
