15
Molecule 5161 / 7211 from QM7b dataset
C 1.5702479932 -0.1418100089 -0.0247714873
O 0.7156193232 -1.1467262289 0.4796817627
C -0.3966294268 -1.4457876989 -0.3805440373
C -1.5544998868 -0.5040355689 -0.1673125873
C -1.4328262868 0.7742530911 0.2150968727
C -0.1184725968 1.4921741511 0.3887269027
O 0.8937916332 1.0010127011 -0.5059689773
H 2.1573075532 -0.4972720089 -0.8920595673
H 2.2368585532 0.1013909911 0.8237162427
H -0.7015276668 -2.4709550289 -0.1213480273
H -0.0771020668 -1.4532865689 -1.4407759373
H -2.5527465468 -0.9271326689 -0.3102354573
H -2.3340089168 1.3692627311 0.3884555827
H 0.2314102232 1.4385719411 1.4381738427
H -0.2423975568 2.5563650411 0.1371970527
