16
Molecule 1921 / 7211 from QM7b dataset
C -0.5153234146 -1.5529395324 1.3189780356
C -0.7031487546 -0.9454602624 -0.0712032244
N 0.1108320654 0.2592445176 -0.2807828744
C -0.3109102646 1.5122006276 0.1730883456
C -1.4499582346 1.7928632976 0.8271972256
C 1.3250343354 0.1372966876 -0.9366720344
O 1.7876493354 -0.9108671124 -1.3645348244
H -1.1726269546 -2.4257292024 1.4360960556
H -0.7553036646 -0.8332055924 2.1128930256
H 0.5221001054 -1.8867800424 1.4533906156
H -1.7526899946 -0.6739319124 -0.2553910944
H -0.3909675446 -1.6599290024 -0.8436807444
H 0.4014377954 2.3075659576 -0.0604120244
H -2.1891660146 1.0400934576 1.0956754756
H -1.6562104146 2.8225755476 1.1102350356
H 1.8422455454 1.1178011576 -1.0353777144
