17
Molecule 1534 / 7211 from QM7b dataset
C -3.3101106557 -0.5715494464 -0.8444849395
O -1.8904778757 -0.6055143464 -0.8850569095
C -1.3202903457 -0.3465388964 0.3999546805
C 0.1649660643 -0.4955863964 0.3134097505
C 1.0438245943 0.4357331436 0.7078728205
C 2.5310949843 0.2721665336 0.6359456705
O 3.1460628443 1.2889463636 -0.1748813095
H -3.6659700757 -0.7753006464 -1.8623019195
H -3.6853843357 0.4187006836 -0.5233659795
H -3.7160199057 -1.3394081164 -0.1582900395
H -1.7303342357 -1.0707769364 1.1363554205
H -1.5913179857 0.6696477536 0.7496513505
H 0.5250958043 -1.4505466864 -0.0868458295
H 0.6846413543 1.3996957736 1.0873818105
H 2.7866506943 -0.7404118764 0.2723849905
H 2.9853281743 0.3940102436 1.6320353205
H 2.7057229143 1.2615840436 -1.0436872695
