13
Molecule 1800 / 7211 from QM7b dataset
C -2.0844469624 0.5321180908 -0.0062881244
C -0.5968048124 0.4331395208 -0.0005872544
N 0.1782456976 1.4791458608 0.0061953556
N 1.5669060476 1.0318267308 0.0095043456
C 1.5721325176 -0.2647442492 0.0048060256
C 0.2101040776 -0.8052597792 -0.0021856344
C -0.1961547724 -2.0880435192 -0.0077603444
H -2.3795680224 1.5875949108 0.0032213856
H -2.5202686124 0.0353089208 0.8735968856
H -2.5117512524 0.0541275808 -0.9007250244
H 2.5025395976 -0.8337750092 0.0061728156
H -1.2557115524 -2.3514201292 -0.0122527944
H 0.5197173376 -2.9119047992 -0.0078191844
