17
Molecule 3792 / 7211 from QM7b dataset
C -2.1174669094 -0.1533204286 1.2079539707
C -0.7894557294 -0.5529660886 0.5527828307
C -0.8443572194 -1.9758800486 -0.0124893693
C -0.4382462894 0.4744863514 -0.5235529693
O 0.8533236706 0.1935843314 -1.1491148993
C 1.9288201106 0.7894842014 -0.5857280493
O 1.9311462806 1.5305897214 0.3744726907
H -2.0647127194 0.8507088214 1.6535914707
H -2.3827618794 -0.8618714286 2.0052234007
H -2.9391220394 -0.1581839686 0.4738255307
H 0.0023186206 -0.5030742986 1.3201037607
H -1.6453057194 -2.0680247386 -0.7638781393
H -1.0488230094 -2.7040650186 0.7854149807
H 0.1029722706 -2.2552996886 -0.4932523293
H -0.4083507994 1.4894282114 -0.1044367193
H -1.1572501594 0.4349421914 -1.3553052693
H 2.8295120506 0.4912235714 -1.1579474993
