19
Molecule 6912 / 7211 from QM7b dataset
C -0.9957460510 -1.2696997498 1.3180488691
C 0.1214800890 -0.5025507298 0.5975740991
C 0.5861040190 -1.2797759098 -0.6546501509
O 1.7229860690 -0.6993122498 -1.2856884109
C -0.2575977210 0.9164102302 0.2066353091
C -1.6006906110 1.1382771702 -0.4399729209
C 0.6136027290 1.9269156602 0.3801616191
H -1.3474437110 -0.7206977598 2.2030227391
H -0.6300628610 -2.2507101398 1.6542513691
H -1.8617390910 -1.4455736898 0.6623984291
H 0.9960440690 -0.4399798598 1.2668752291
H -0.2593879110 -1.3769356598 -1.3659572609
H 0.8850995190 -2.2970037498 -0.3581663409
H 1.5551611390 0.2632384202 -1.3311607009
H -2.4192972910 0.9245939802 0.2649661391
H -1.7505617610 0.4721592402 -1.3048332309
H -1.7099917010 2.1750525002 -0.7832312109
H 1.5781831790 1.7675769502 0.8671580991
H 0.3771931490 2.9453177402 0.0634030791
