13
Molecule 4264 / 7211 from QM7b dataset
N -1.8787927750 -0.2777370963 0.3874189834
C -0.4032819350 -0.2733536763 0.4491485434
C 0.1457370650 -1.0178430963 -0.7935992566
O 1.5629616950 -1.1208218163 -0.7938165566
C 0.1130704750 1.0951019237 0.4648927434
C 0.5916014650 2.2112035237 0.4479455134
H -2.2541401850 0.3810909537 1.0727606234
H -2.2200757850 -1.2044691763 0.6550320234
H 0.0085499550 -0.7849983263 1.3435841034
H -0.2442007450 -0.5137758963 -1.6950708866
H -0.2368437250 -2.0497587263 -0.7824260766
H 1.9149828750 -0.2107878463 -0.8087203466
H 0.9968210550 3.2027811737 0.4431148634
