20
Molecule 7175 / 7211 from QM7b dataset
C -3.2163455917 -0.4948691314 -0.4103193130
C -1.7067233117 -0.6107465014 -0.6281349330
C -0.9245938917 0.5806811786 -0.0591216430
C 0.5636239583 0.4945029586 -0.3105799730
N 1.5149360983 1.3365242486 0.4551557470
C 1.4833395483 -0.1322486614 0.6786599170
C 2.7182705783 -0.8974988914 0.2738622570
H -3.7505071717 -1.3581948514 -0.8319632530
H -3.6185849717 0.4119931886 -0.8875373430
H -3.4623976817 -0.4416095514 0.6614373670
H -1.4954941617 -0.6969474614 -1.7076300030
H -1.3326212617 -1.5408042514 -0.1683640330
H -1.1048555617 0.6539959986 1.0292013470
H -1.3148686317 1.5151752486 -0.5018476830
H 0.8433330483 0.4082885786 -1.3680410230
H 1.0012803983 1.8047963686 1.2110144470
H 1.0050840083 -0.4747129914 1.6048106570
H 3.1374832183 -0.4823375614 -0.6528689930
H 2.4880877083 -1.9608209714 0.1080479770
H 3.4940806383 -0.8334171914 1.0514524370
