15
Molecule 886 / 7211 from QM7b dataset
C -2.5692950778 0.2806763188 -0.0131485434
C -1.0800363678 0.3433727188 -0.0052163434
C -0.1884981678 1.3958676788 0.0006982566
N 1.1190276822 0.9508451988 0.0072977466
C 1.0462543022 -0.3709064312 0.0052644166
C 2.2000461622 -1.3191518812 0.0094594366
N -0.2688148578 -0.7838085412 -0.0023148734
H -2.9784382378 1.2988280188 -0.0069226734
H -2.9699061178 -0.2420034812 0.8702593766
H -2.9612781778 -0.2277983512 -0.9086614534
H -0.4268567978 2.4568385988 0.0008954566
H 1.8641265222 -2.3645092012 0.0193550466
H 2.8338133622 -1.1539047012 0.8921332766
H 2.8290236222 -1.1694009512 -0.8795619934
H -0.5927990478 -1.7464569612 -0.0047204834
