17
Molecule 2006 / 7211 from QM7b dataset
C -2.8436805226 -0.1524014833 0.7613593476
O -1.4437658126 0.0401955267 0.9180067976
C -0.7005416326 -0.6269254033 -0.0945237724
C 0.7948657774 -0.3360158733 0.0962497576
C 1.6726328274 -1.2390441133 -0.7663612824
C 1.0772421074 1.1421554967 -0.1218012824
O 2.0058054374 1.5788132267 -0.7781926324
H -3.3377747326 0.3980836267 1.5714315976
H -3.1143938026 -1.2226664033 0.8327905676
H -3.1995705726 0.2365636967 -0.2110515824
H -1.0318792726 -0.2925057733 -1.1001734124
H -0.8702723326 -1.7213567833 -0.0410109424
H 1.0029221974 -0.5130899633 1.1700621476
H 1.4266163274 -1.1261361233 -1.8323702124
H 1.5385170374 -2.2936488633 -0.4896307124
H 2.7307600074 -0.9750687333 -0.6501364124
H 0.3556468074 1.8311435567 0.3820390276
