16
Molecule 4044 / 7211 from QM7b dataset
C -0.9025427666 -0.3674605886 1.9205623475
C 0.0304333634 -0.1443111086 0.7391492175
C 0.9832467734 -1.3140249086 0.5076317575
O -0.8275544366 0.0458730314 -0.4197417125
C -0.3222814066 0.7277330314 -1.4845111825
C 0.8892389434 1.2841285114 -1.6497943425
H -1.5732806366 0.4913832314 2.0546485675
H -0.3194661366 -0.5028940286 2.8419852475
H -1.5144171966 -1.2671924686 1.7622109175
H 0.6000835734 0.7891210314 0.8946973275
H 0.4137452134 -2.2478566286 0.3941776575
H 1.6626030434 -1.4252382886 1.3649573275
H 1.5893172034 -1.1652633086 -0.3950883125
H -1.0840561566 0.7893348914 -2.2660358025
H 1.6883682634 1.2424672714 -0.9123030325
H 1.0889688834 1.8127644214 -2.5795429825
