12
Molecule 2030 / 7211 from QM7b dataset
N -2.4240462075 0.1904760338 0.1630232760
C -1.0661893175 0.0894207938 0.0460840660
C -0.2634126775 -0.9982666162 -0.0659972240
C 1.1290036525 -0.5611380462 -0.0866103040
O 2.1601614825 -1.1895755762 -0.1778483440
O 1.1477648525 0.8492626138 0.0185366360
C -0.1952803375 1.3191730838 0.1128267260
H -2.9868754575 -0.6208609762 -0.0715146940
H -2.8601847475 1.0837564438 -0.0422269040
H -0.5438624375 -2.0449298762 -0.1341401940
H -0.3986923075 2.0144130338 -0.7205625940
H -0.3302001975 1.8616575438 1.0639555360
