14
Molecule 2680 / 7211 from QM7b dataset
O -1.0353232419 -2.0237384063 -1.5335889384
C -0.8275533519 -1.3554379663 -0.5404553084
C 0.3046561781 -0.3294443263 -0.4017903284
N 0.7873786681 -0.2884821963 0.9881500916
C 0.7841877981 1.1054587637 1.4842708416
C 0.0292620281 1.8498180837 0.4209105116
C -0.2295843719 1.0660352337 -0.6322099484
H -1.4620073719 -1.4289217463 0.3801882816
H 1.0777298981 -0.5924938263 -1.1501038384
H 1.6937773881 -0.7383030663 1.0889656416
H 1.8027754481 1.5232701037 1.6119054216
H 0.2871577781 1.1763177037 2.4689361116
H -0.2427618419 2.9012052937 0.5122976416
H -0.7515457219 1.3496294337 -1.5448829984
