17
Molecule 2354 / 7211 from QM7b dataset
C -0.3306309037 1.6197061044 -1.5115018375
N -1.4149847837 0.7443323644 -1.0131449075
C -0.0743494437 0.1726929744 -1.2700406275
C 0.6993324663 -0.3298196856 -0.0762145075
C 0.5305128963 0.3645367044 1.3002752025
N 0.3015374263 -0.9582508456 1.9815197025
C 0.2107516863 -1.6210433556 0.6363942825
H -0.3641819537 1.9739806644 -2.5448437975
H 0.0223231263 2.3562335344 -0.7844251975
H -2.0483654537 0.5058831644 -1.7815774275
H 0.0355974563 -0.4435722756 -2.1707264975
H 1.7637130863 -0.4112368456 -0.3520441475
H -0.3770693837 0.9843054044 1.3566681425
H 1.3912259363 0.9408165144 1.6701303525
H 1.1652650163 -1.2529779956 2.4440565425
H 0.8284138463 -2.5227977656 0.5105950325
H -0.8364903837 -1.8696414856 0.4000683625
