19
Molecule 4296 / 7211 from QM7b dataset
C -3.2035066794 -0.6791323830 -1.1939412632
C -1.8950793894 -1.2720574130 -0.7054249832
O -0.9589365894 -0.2147647130 -0.5026936432
C 0.3079056306 -0.7040576030 -0.0512849232
C 1.2696874706 0.4347601870 0.0646852068
C 1.9387420606 0.7418949070 1.1836081368
C 2.9384779406 1.8479594370 1.3186156968
H -3.9436877694 -1.4756511830 -1.3543130532
H -3.0577812894 -0.1440579630 -2.1424751632
H -3.6083421494 0.0279039470 -0.4568197732
H -1.4924046094 -1.9953286530 -1.4445108232
H -2.0486441494 -1.8260757130 0.2434843468
H 0.6880643206 -1.4520239430 -0.7801531132
H 0.1988465906 -1.2200589330 0.9240875268
H 1.4253262606 1.0263453270 -0.8446462932
H 1.7530808206 0.1400621770 2.0821776468
H 3.0560712506 2.4050308670 0.3790047368
H 3.9262468606 1.4578212170 1.6127299768
H 2.6373543806 2.5579477670 2.1054359068
