16
Molecule 3821 / 7211 from QM7b dataset
C -2.0253492901 -2.4247647901 0.1541335117
C -0.4865270801 -2.4414652901 0.1449151917
C 0.0981034399 -1.1053704401 0.1607309317
C 0.5441120599 0.0271534899 0.1753064317
C 1.1127711099 1.3478021699 0.1905229617
C 0.9894561599 2.2832234099 -0.9738598883
N 0.1706019999 2.5072622899 0.2291546717
H -2.4184432101 -3.4509696401 0.1464280817
H -2.4145865301 -1.8966647501 -0.7266136783
H -2.4039317201 -1.9130487601 1.0489569017
H -0.1271844301 -2.9857991101 -0.7450670083
H -0.1171675601 -3.0075545601 1.0168377617
H 2.0347093599 1.4432948899 0.7738226317
H 0.4261226199 1.9515189299 -1.8481354783
H 1.8367641199 2.9422168099 -1.1808389283
H 0.5941049599 3.2466988699 0.8000321717
