19
Molecule 4327 / 7211 from QM7b dataset
C -1.4209402723 -1.2014513725 0.2915508694
C 0.1067866577 -1.1367406825 0.1707490394
C 0.6224887877 -2.0927904125 -0.9094494806
C 0.6131508677 0.3097926975 -0.0851580306
O 0.1391185977 0.8464258175 -1.3250206906
C 0.3470395877 1.2171112875 1.0910425994
C -0.1459021823 2.4581958475 1.0186494094
H -1.8024681423 -0.5131955625 1.0598346894
H -1.7453333823 -2.2181310525 0.5558267394
H -1.9054363323 -0.9513738625 -0.6662770606
H 0.5414614177 -1.4407035725 1.1409313794
H 0.2630863177 -1.7835198125 -1.9018030206
H 0.2765707577 -3.1199602625 -0.7234771606
H 1.7224079677 -2.1064271025 -0.9405704406
H 1.7094866477 0.2468841975 -0.2206817006
H -0.8137865223 1.0212594675 -1.2137242006
H 0.5952654077 0.7919580275 2.0705047894
H -0.3773686923 2.9236215475 0.0582601794
H -0.3125749023 3.0534772575 1.9170348894
