15
Molecule 6343 / 7211 from QM7b dataset
C -2.0614545978 -0.3362003056 0.4044031872
C -0.7484595978 -0.3344903256 0.1270892672
C 0.0908216322 -1.5755543756 -0.1617645228
C 1.4680474822 -1.0170674656 -0.4001162628
C 1.4844589022 0.3267106744 -0.2824048828
C 0.1543235222 0.8488392044 0.0437338472
C -0.1631477378 2.1497802744 0.2273138772
H -2.6073718278 0.5874947544 0.6032485772
H -2.6330475978 -1.2647828756 0.4412494772
H -0.2866361478 -2.1297188856 -1.0384984828
H 0.0743985722 -2.2859981456 0.6827260672
H 2.3299356422 -1.6409192256 -0.6371656528
H 2.3591461322 0.9655427844 -0.4083691928
H -1.1780407878 2.4671358644 0.4686669572
H 0.5940783822 2.9291396444 0.1386151872
