16
Molecule 2541 / 7211 from QM7b dataset
C -1.5501257419 -1.9493470326 -0.8474208041
C -1.0336793619 -1.0596515926 0.0103055259
C 0.0435911381 -0.0797617526 -0.3040958041
C -0.1842135319 1.4318425174 0.0225871459
C 1.3016322181 1.5285337874 0.4547003059
C 1.3017735081 -0.0129693626 0.6212539459
H -2.3394528019 -2.6418220626 -0.5508227941
H -1.1965516619 -2.0121101526 -1.8801860641
H -1.4154719519 -1.0295156926 1.0396896359
H 0.3597963881 -0.1897151926 -1.3546251941
H -0.8613305019 1.5444568774 0.8833459759
H -0.5398453019 2.0763832374 -0.7929399741
H 1.9444290281 1.8438813074 -0.3801947341
H 1.5429408181 2.1406488774 1.3341095159
H 2.1901172781 -0.5783936426 0.3074299259
H 1.0414993381 -0.3056929426 1.6502118159
