17
Molecule 4877 / 7211 from QM7b dataset
C -2.4496255216 -0.9134152835 0.5091835012
N -1.2313121316 -0.1294397935 0.5393958112
C -0.0879428016 -0.5144782435 -0.0904122888
O 0.0292212884 -1.5385237935 -0.7691967188
C 1.1107672284 0.4377027565 0.1489613712
C 1.9367767384 0.5886733965 -1.1311892488
N 0.6750707184 1.7100265465 0.7627823912
H -2.7235697716 -1.2678977535 1.5143496812
H -2.2686849616 -1.7815545935 -0.1362940588
H -3.2877464916 -0.3301413835 0.0996104512
H -1.1485481616 0.7292450365 1.0870859212
H 1.7235962684 -0.0853916035 0.9035268112
H 1.3737070984 1.1587974665 -1.8869320988
H 2.1640394984 -0.3965151335 -1.5573982088
H 2.8766612584 1.1200022065 -0.9256297188
H 0.4479237684 2.3836886065 0.0251046312
H 1.4426872184 2.1229544765 1.2956429112
