19
Molecule 4846 / 7211 from QM7b dataset
C -2.6125932442 -1.9234920916 -0.2203271565
C -1.1035737042 -1.8242745816 -0.1231574965
O -0.7428097442 -0.4339090216 -0.0646595865
C 0.6105252158 -0.2027116716 0.0194888335
C 1.1375864058 1.0320810284 0.1026034635
C 0.2929681358 2.2748385984 0.1140544935
C 2.6277937758 1.2117561884 0.1867175335
H -2.9156726842 -2.9788188016 -0.2657923965
H -2.9799034842 -1.4183076816 -1.1239156765
H -3.0913471442 -1.4631188916 0.6545846835
H -0.6221286042 -2.2926742716 -1.0017210265
H -0.7340484942 -2.3390583816 0.7831673335
H 1.2440845958 -1.0966774916 0.0123691935
H -0.7769851142 2.0417352184 0.0614122135
H 0.5474601058 2.9301268084 -0.7364257465
H 0.4758105458 2.8646582084 1.0283517335
H 3.1604967858 0.2505440584 0.1720768835
H 2.9139948958 1.7435415084 1.1105479835
H 3.0044770458 1.8201370684 -0.6536565165
