14
Molecule 5349 / 7211 from QM7b dataset
C -1.4694896430 -2.0538334806 -1.2100471812
C -0.9204859130 -1.6682259506 -0.0508411712
C 0.2105619470 -0.7231368906 0.1038638188
N 0.7624832070 0.0599022994 -1.0053948112
C -0.0391829130 0.7701205594 0.0312848588
C 0.6405026970 1.6954031594 0.8931674288
C 1.1829784970 2.4758044994 1.6491798788
H -2.3122997430 -2.7445189006 -1.2326127112
H -1.0977418130 -1.7088997506 -2.1780754512
H -1.3102297830 -2.0751304906 0.8882571988
H 0.9717042270 -1.0262339906 0.8301342188
H 0.1703791070 -0.0554392606 -1.8362647612
H -1.0629216730 1.0485964594 -0.2375723812
H 1.6744191970 3.1655184594 2.3042517688
