13
Molecule 6606 / 7211 from QM7b dataset
O -1.7751993878 0.3837377028 -1.4846539534
C -0.3991461778 0.2747652228 -1.0943333634
C -0.0189339078 -1.0171553172 -0.3449562834
C 0.7368445022 -0.5446007472 0.9081022566
O 1.3612481522 -1.2525078472 1.6834211666
C 0.5641926222 0.9273848228 0.9824512666
C -0.0889677478 1.3726464528 -0.1052527334
H -1.9173272178 -0.2033783072 -2.2470461534
H 0.2501475522 0.4112591828 -1.9820561034
H 0.5890441222 -1.7282749372 -0.9197394634
H -0.9359591578 -1.5322981072 -0.0207025634
H 0.9354471322 1.5197427528 1.8177755966
H -0.3736782878 2.4048679628 -0.3144358734
