19
Molecule 6764 / 7211 from QM7b dataset
N -2.6335985820 0.0197982402 -1.8056456575
C -1.7989978220 0.2077860602 -0.6092724175
C -0.4488826320 -0.4917571498 -0.7923257175
C 0.4887988580 -0.4187271298 0.4215883125
N 1.7316210280 -1.2074036098 0.2765660025
C 0.9269909280 1.0143424102 0.7654569025
O 1.8419637280 1.0167384702 1.8529127125
H -3.5119264120 0.5330589602 -1.7032445375
H -2.8903293720 -0.9672150998 -1.8964366675
H -2.2664542120 -0.1556715898 0.3304992925
H -1.6451679020 1.2912018402 -0.4856714075
H 0.0536370380 -0.0681250598 -1.6793907675
H -0.6340380620 -1.5571786498 -1.0196895075
H -0.0285564120 -0.8219455198 1.3099706125
H 2.1340148680 -1.0533224098 -0.6535198075
H 1.5370593780 -2.2073734098 0.3498248525
H 0.0644843880 1.6307651002 1.0586703425
H 1.3783008980 1.4771174002 -0.1395857575
H 2.3796528680 0.2081531202 1.6961467525
