17
Molecule 6684 / 7211 from QM7b dataset
C -2.2469557922 0.6151579007 -0.3717824405
C -0.7291727822 0.6416426407 -0.3833785705
C 0.0235170878 1.7201477707 0.4459698495
C 1.0627347778 0.6515186407 0.8746447695
C 0.0661310378 -0.4461733293 0.4420915495
C 0.5473814678 -1.6226342893 -0.3500434205
O 1.7057623978 -1.8325164393 -0.6687219105
H -2.6427634122 -0.2740265593 -0.8852085405
H -2.6579405822 1.5004750107 -0.8806564105
H -2.6329975322 0.6111159907 0.6594384695
H -0.3538794322 0.6448231107 -1.4203682505
H -0.5896478122 2.0558570507 1.2964293495
H 0.3894063678 2.6026413807 -0.0963301205
H 1.9518262978 0.6360775407 0.2294976595
H 1.3852987178 0.6483771207 1.9232923295
H -0.5705911422 -0.8057720193 1.2693802395
H -0.2666254322 -2.3173931193 -0.6907098605
