17
Molecule 6342 / 7211 from QM7b dataset
C -1.3642910720 -3.1967851838 -0.8096449191
C -1.2758105820 -1.7169844138 -0.6243368791
N -0.1481506020 -1.1434512038 -0.3899547491
N -0.1130994820 0.2261564162 -0.3171948591
C 0.9549966480 0.7510354662 0.5362277209
C 1.1388976280 2.2209591762 0.2966912809
C 1.0729465580 3.1530509562 1.2534553609
H -2.0553861820 -3.6490609438 -0.0803652091
H -0.3734548920 -3.6517979538 -0.6901306491
H -1.7500983020 -3.4502763338 -1.8104879791
H -2.2076425220 -1.1253617338 -0.7113642891
H -1.0246662020 0.6653826662 -0.1259174191
H 1.8662939580 0.2002140662 0.2531699209
H 0.7768536180 0.5582525562 1.6125635809
H 1.3371104080 2.5108875262 -0.7404312491
H 0.8656554380 2.8853649362 2.2929952609
H 1.2336501880 4.2098027262 1.0356599009
