20
Molecule 3531 / 7211 from QM7b dataset
C -2.1462708356 -2.5321171334 0.1705361718
O -0.8483757256 -1.9892982034 0.3509560618
C -0.8233734356 -0.5856731634 0.0870480718
C 0.6031499544 -0.0870431734 0.2652227818
C 0.7549165244 1.4279465366 0.0755321318
C 2.1766448444 1.8847299366 0.4338855618
N 0.3264428244 1.8000369166 -1.2879848782
H -2.0840997956 -3.6056789634 0.3911397818
H -2.5044146456 -2.3964044734 -0.8683236282
H -2.8821086756 -2.0659825234 0.8545689518
H -1.5045353156 -0.0582521734 0.7883493218
H -1.1833674556 -0.3774800334 -0.9374999082
H 1.2606379044 -0.6147294234 -0.4486762682
H 0.9503816444 -0.3636719734 1.2732501418
H 0.0493589044 1.9285384866 0.7642696018
H 2.9177887644 1.3928987466 -0.2168704482
H 2.4304420944 1.6413618866 1.4775015218
H 2.2831424444 2.9723721166 0.3055490018
H 0.9841476344 1.3991957466 -1.9658938482
H 0.3941302244 2.8149017766 -1.4024668882
