14
Molecule 1624 / 7211 from QM7b dataset
O -0.8920764013 1.1418413389 -1.8560018305
C -1.5882032313 0.6019876689 -1.0139229405
C -1.1803208313 -0.6001226311 -0.1983081805
C 0.2344712587 -1.1113437111 -0.4622552005
C 1.3408454187 -0.1565875711 0.0364160695
C 1.2686705087 0.0823727589 1.4750979595
N 1.1750454187 0.2603492289 2.6245434895
H -2.6189455513 0.9843382589 -0.7988391905
H -1.9295055713 -1.3859119511 -0.4048468305
H -1.3335316913 -0.3490164211 0.8676429995
H 0.3790640287 -1.2462973911 -1.5438505905
H 0.3625160887 -2.0930763211 0.0151640895
H 1.2667592987 0.8092520389 -0.4852996605
H 2.3321579387 -0.5743026111 -0.1959268405
