13
Molecule 1307 / 7211 from QM7b dataset
N -1.7561900725 0.1331152451 -0.3745315780
N -0.3853883225 0.4415745851 -0.3873646280
C 0.6305296175 -0.6097363349 -0.5147338980
C 0.4740914875 -1.6538214849 0.4934617420
C 0.2947663375 -2.5213411749 1.3229204920
C -0.0128895825 1.7459325551 -0.1502682980
O 1.1459652275 2.1391603451 -0.0948805880
H -1.9283665125 -0.5648903249 0.3587200020
H -2.0136199225 -0.2912597849 -1.2722382880
H 1.6007246375 -0.0972470149 -0.4104633480
H 0.5874497475 -1.0540011549 -1.5250952280
H 0.1682700975 -3.2841545249 2.0643801120
H -0.9101182625 2.3892398651 -0.0312653280
