22
Molecule 2367 / 7211 from QM7b dataset
C -2.0495332422 -1.5774366163 0.3847687241
C -0.7997125022 -0.9818226463 -0.2746327359
C -1.0794911322 -0.5546335463 -1.7187585459
C -0.2792762222 0.1902235837 0.5743633241
N 0.9238231378 0.8451834537 0.0514649541
C 1.1710027978 2.1016164937 0.7512859341
C 2.0994133478 -0.0164129763 0.1283156641
H -1.8496660822 -1.8992568163 1.4180880341
H -2.4125131422 -2.4510304663 -0.1762627659
H -2.8671836322 -0.8387155663 0.4143096441
H -0.0272328722 -1.7716126663 -0.2889007259
H -1.8897185122 0.1922749237 -1.7506576259
H -1.3910150122 -1.4132912663 -2.3316253559
H -0.1911015722 -0.0978648563 -2.1748561059
H -0.1167539322 -0.1649110663 1.6211784441
H -1.0726437522 0.9571021437 0.6217439341
H 0.3013150778 2.7657115537 0.6428658441
H 2.0439921078 2.6054978837 0.3110743141
H 1.3673924078 1.9633178037 1.8396299441
H 1.9550015178 -0.9227319163 -0.4750211259
H 2.3378345078 -0.3281172263 1.1717926841
H 2.9711126478 0.5181376137 -0.2756680059
