20
Molecule 7154 / 7211 from QM7b dataset
C -2.5563133126 -1.1331884230 0.0494866705
C -1.0470717526 -1.2109319830 0.0100597205
C -0.3343969626 -1.6333904130 -1.2560168095
C -0.2344167426 -0.2024448130 -0.7721523095
C 1.0721100074 0.3388590370 -0.2331175295
C 0.8847649674 1.5267657470 0.7137323505
N 2.1883010674 2.0559054170 1.1473474505
H -2.9039845226 -0.4399943430 0.8312875005
H -3.0049406826 -2.1186448330 0.2497258405
H -2.9560961326 -0.7770475630 -0.9121562495
H -0.5816883926 -1.5538371630 0.9401432505
H -0.9453010426 -1.8365218830 -2.1376390795
H 0.5538375374 -2.2617244930 -1.1666922595
H -0.8250452226 0.5231456070 -1.3425288895
H 1.7309565474 0.6509315770 -1.0608390795
H 1.6056919674 -0.4696092630 0.2997491905
H 0.2196567474 1.2190763370 1.5469393805
H 0.3609382574 2.3345155370 0.1753216305
H 2.6692082974 1.3562194770 1.7200842605
H 2.0506019474 2.8681381770 1.7532197905
