20
Molecule 6867 / 7211 from QM7b dataset
C -0.5132484286 -2.2879782122 -0.7563440664
C -0.8362044886 -1.2499449622 0.3246472736
C -0.2549388186 0.1685129178 0.1217869236
C -0.8130287586 0.8386595078 -1.1392442864
N -0.5705738286 1.0547910378 1.2738144236
C 1.2941687914 0.1298784578 0.0667358236
O 1.8478979514 1.4361678378 0.1234808936
H -0.9771680286 -3.2534119622 -0.5089677864
H 0.5680167414 -2.4616044022 -0.8524373864
H -0.8952980786 -1.9859595822 -1.7419720564
H -0.4730009986 -1.6252079222 1.2984317436
H -1.9316847386 -1.1535256822 0.4216606136
H -0.5653955786 0.2583687278 -2.0379364764
H -0.3826046886 1.8418546478 -1.2574455064
H -1.9096927386 0.9275034778 -1.0845160364
H -0.4899332086 0.5295998078 2.1499443836
H -1.5385983086 1.3801721478 1.2166904436
H 1.6394268114 -0.3362053822 -0.8681932864
H 1.6618740614 -0.4945025822 0.9097249536
H 1.2444021614 1.9052724878 0.7449782736
