17
Molecule 4616 / 7211 from QM7b dataset
C -1.1552342301 -1.4668502128 1.3266139058
O -0.3315523401 -1.0845940028 0.2227472558
C -0.5379037501 0.2536575672 -0.1778300942
O -0.1202146101 1.2030821872 0.8076722958
C 1.2864354299 1.1742184172 1.0867023958
C 0.1249400699 0.4871011572 -1.5123358442
C 0.6899197699 -0.4535871428 -2.2732835742
H -0.9357024501 -2.5220140228 1.5293515858
H -2.2262275101 -1.3590080528 1.0763352158
H -0.9374497301 -0.8648592928 2.2231259958
H -1.6253096401 0.4575283772 -0.2608951342
H 1.4516347899 1.9158391572 1.8774788158
H 1.8845280899 1.4447436972 0.2003439758
H 1.6079458999 0.1816143972 1.4402650258
H 0.0924124399 1.5302926072 -1.8409490642
H 0.7178636499 -1.4949520528 -1.9502628942
H 1.1354963299 -0.2043290028 -3.2373506642
