16
Molecule 3366 / 7211 from QM7b dataset
N -0.4560885095 -2.0294776158 -0.4199289308
C -0.9576880995 -0.7584631258 0.1328063792
C 0.1313620705 0.3055172842 0.1565233892
N 1.3412246605 0.0193251842 0.9065299892
C 0.3310389505 1.1515963742 -1.0756792508
C -0.3089909595 1.7506799442 0.1602927592
H -1.2393958195 -2.6605678758 -0.6003970708
H 0.1246058905 -2.5027701158 0.2775283192
H -1.3750467095 -0.8543900458 1.1587655092
H -1.7813004395 -0.4136171058 -0.5120678408
H 1.1170636805 -0.2061064758 1.8804192892
H 1.8181046005 -0.7914509158 0.5022785892
H -0.2998180495 0.9441021642 -1.9405416508
H 1.3528164205 1.4536182742 -1.3044877308
H 0.2920804505 2.4429052242 0.7498293992
H -1.3793948495 1.9633610342 0.1388061192
