20
Molecule 6739 / 7211 from QM7b dataset
C -2.8884630660 -0.0271615691 0.6693572994
C -1.3795728760 0.1325868909 0.8184838494
N -0.6764615660 -0.5984637191 -0.2421808706
C 0.7974188440 -0.5043340891 -0.1952041606
C 1.3895286240 -1.4387330591 -1.2540337506
C 1.3020728540 0.9088784309 -0.3694527606
C 1.8849288040 1.6512844509 0.5794620094
H -3.4164908960 0.4914792209 1.4819451894
H -3.1740939260 -1.0884061991 0.6852937894
H -3.2408048560 0.4047755509 -0.2809080406
H -1.0542616260 -0.2967702291 1.7821124794
H -1.1172274360 1.2100223609 0.8533979894
H -1.0031215060 -0.2658251091 -1.1566197506
H 1.1001542740 -0.8626551291 0.8055860594
H 1.1040635840 -1.1106483691 -2.2667220206
H 1.0151052340 -2.4610219191 -1.1084530406
H 2.4869329840 -1.4438867891 -1.2022783106
H 1.1259513040 1.3475965509 -1.3615496106
H 2.0760797440 1.2493089409 1.5786346294
H 2.1974649840 2.6801508209 0.3931518094
