16
Molecule 2907 / 7211 from QM7b dataset
C -1.3841735158 1.8247064002 1.4787818031
N -0.6491583558 0.7281602002 0.8757839031
C -0.2085355558 0.7594595102 -0.4114020769
O -0.3728279758 1.6961352402 -1.1957355069
C 0.5452425142 -0.4907489498 -0.8631225569
O 0.6392693742 -1.4587491098 0.1768067831
C 1.3082405842 -2.6407111298 -0.2484488669
H -0.9015515558 2.1536107302 2.4104405131
H -2.4251422558 1.5405692402 1.6967249131
H -1.3863164158 2.6545917802 0.7618136531
H -0.4500688758 -0.1177731498 1.4050005731
H 1.5487336642 -0.1700559198 -1.2010433769
H 0.0128403142 -0.9005202698 -1.7420178169
H 2.3397828342 -2.4212697498 -0.5796564969
H 0.7665282842 -3.1318519598 -1.0775618669
H 1.3431271542 -3.3197461298 0.6123925631
