15
Molecule 2060 / 7211 from QM7b dataset
N -1.7585297355 0.3472887775 1.3837098909
C -0.7678500655 0.0740180475 0.6317840309
C -0.5079983055 -1.2984976925 0.0239220809
C 0.9735061145 -1.2719365025 -0.3896211891
C 1.3097321845 0.2121796075 -0.4612770791
C 0.4122868445 1.1103216675 -1.2208545391
N 0.2758283745 1.0086575675 0.2683649209
H -1.7088912055 1.3389360175 1.6618143709
H -1.1758754955 -1.4326008025 -0.8404666091
H -0.7571853755 -2.0919357325 0.7377622709
H 1.5989986345 -1.7425647325 0.3833665509
H 1.1709473845 -1.7940895825 -1.3370898991
H 2.3403067845 0.5248850175 -0.2790973191
H 0.7706154445 2.0825061275 -1.5622725891
H -0.3780672755 0.6667285075 -1.8322602891
