16
Molecule 494 / 7211 from QM7b dataset
C -2.0792461829 -0.7498167585 0.0470394792
C -0.5487906629 -0.7710537985 0.0041894692
C -0.0282793329 -1.5220233585 -1.2264753708
C -0.0014967529 0.6784178915 0.0475118092
O -0.4580156629 1.4344510715 1.1722795792
C 1.4734268571 0.6973363715 -0.0138801608
N 2.6401820371 0.7030395915 -0.0131710208
H -2.4528352729 -0.1880110085 0.9124141792
H -2.4718277929 -1.7746601785 0.1017667492
H -2.4876929429 -0.2832507685 -0.8635688108
H -0.1710488629 -1.2796158285 0.9105464892
H -0.3673844829 -1.0366754685 -2.1553043608
H -0.4130435129 -2.5511035485 -1.2318939108
H 1.0688812271 -1.5713517185 -1.2470556508
H -0.3780206529 1.2247550015 -0.8348001708
H -0.0378602129 1.0658657215 1.9715446392
