19
Molecule 6166 / 7211 from QM7b dataset
C -1.2358248101 -1.0372285800 -1.3094151341
C -1.2263778901 -0.7201348500 0.1628671359
C -1.9140288201 -1.4553210700 1.0507440959
C -0.4040516901 0.4730743700 0.6029688459
C 1.0884597199 0.3327838600 0.3438104459
C 1.7081183199 0.8204811100 -0.9464360241
C 1.9672999399 1.5616587300 0.3454275559
H -1.5977138301 -0.1751986600 -1.8940284841
H -1.8788965301 -1.8989269000 -1.5312613441
H -0.2205684701 -1.2570805700 -1.6739440841
H -2.5108149801 -2.3152318100 0.7391816059
H -1.9029456901 -1.2172003400 2.1165670759
H -0.5716766301 0.6473004700 1.6783525959
H -0.7634958601 1.3769513300 0.0761731959
H 1.5337249199 -0.5687538200 0.7742750759
H 1.0491820599 1.2948144400 -1.6759720241
H 2.5238560999 0.2432994600 -1.3833551041
H 2.9586958299 1.4896074100 0.7932663859
H 1.4790844699 2.5285375700 0.4809435759
