18
Molecule 4700 / 7211 from QM7b dataset
C -3.1350983883 -0.8127806610 -0.6949018876
C -1.7049602483 -1.0462070110 -0.3383909476
N -0.8734885883 -0.0683366410 -0.3609941076
O 0.4262241917 -0.4915381010 -0.0187751576
C 1.3136658817 0.6606598390 0.0180527824
C 1.0307040717 1.5222968790 1.2427554724
C 2.7219914317 0.0854554190 -0.0013859576
H -3.4325044583 -1.4418663210 -1.5486548676
H -3.3006602683 0.2400849390 -0.9543681676
H -3.7959850083 -1.0822075510 0.1441287324
H -1.3716451983 -2.0566820210 -0.0601604676
H 1.1284816017 1.2444828690 -0.9002300176
H 1.2075213817 0.9494852490 2.1654768324
H -0.0125294583 1.8638613790 1.2336697724
H 1.6849495417 2.4062123390 1.2501158724
H 2.8956068817 -0.5431853710 0.8843131924
H 3.4599070717 0.8992059590 0.0056733824
H 2.8836680117 -0.5252769610 -0.8995810176
