18
Molecule 1038 / 7211 from QM7b dataset
C -2.6424420948 -1.1343206780 0.1432216740
C -1.1657327448 -1.3724553380 -0.1514430760
N -0.4102535248 -0.1166662780 -0.1240181060
C 1.0285150052 -0.3119356980 -0.3170417560
C 1.7555062452 1.0272918920 -0.4172222260
N 1.5179982952 1.8450862820 0.7878858040
H -3.2096170848 -2.0737479680 0.0823308740
H -3.0705431048 -0.4190926180 -0.5732018060
H -2.7844950848 -0.7268273380 1.1565182640
H -1.0536748648 -1.8067982880 -1.1597807460
H -0.7598529148 -2.1263459780 0.5599739240
H -0.5395535248 0.3098157920 0.7998127240
H 1.1747338152 -0.8654856080 -1.2602131460
H 1.4873658052 -0.9166855680 0.4955473440
H 1.4461513752 1.5310030220 -1.3531449360
H 2.8361773152 0.8291681520 -0.4892771760
H 0.6305835252 2.3442153220 0.6861966440
H 2.2334328852 2.5703599820 0.8630764540
