18
Molecule 5966 / 7211 from QM7b dataset
N -1.3502882270 -0.2904749633 1.7687762801
C -0.2608911770 -0.0402133533 0.8034635101
C -0.6331573470 -0.7424868233 -0.5250412499
C 0.4233601430 -0.6444992033 -1.5845661399
C 1.0182608030 -1.6905413733 -2.1696205799
C -0.1266055970 1.4487143867 0.6245109601
C 1.0025615430 2.1423061867 0.8046998801
H -1.0960524870 0.1032952267 2.6782640601
H -1.4644102770 -1.2983064633 1.9072446201
H 0.7207189430 -0.4404208633 1.1314724701
H -1.5781275270 -0.2949785633 -0.8814710399
H -0.8430658670 -1.8045889933 -0.3120932099
H 0.7141747930 0.3688509567 -1.8830408699
H 0.7608195830 -2.7185451133 -1.8991517099
H 1.7777127630 -1.5573775533 -2.9416278099
H -1.0516189570 1.9636486667 0.3385589201
H 1.9320362430 1.6491220367 1.1016793401
H 1.0386601730 3.2229464867 0.6580529801
