14
Molecule 5358 / 7211 from QM7b dataset
C -1.2520256534 -2.1944294565 -1.2784897883
C -0.7313984434 -1.7793663965 -0.1169545483
C 0.3531906266 -0.7790564565 0.0344311817
N 0.8196556066 0.0745578135 -1.0497188283
C -0.0005757434 0.6994428635 0.0194459117
C 0.7298292066 1.6156183935 0.9336081617
O 0.1939632566 2.4753632835 1.6105714317
H -2.0568955034 -2.9287270465 -1.3037608783
H -0.8933428234 -1.8318269465 -2.2449865483
H -1.0996471034 -2.2042223165 0.8223768017
H 1.1514455866 -1.0699710565 0.7276544817
H 0.2258669566 -0.0490508065 -1.8772816383
H -1.0475693634 0.9460654635 -0.1748287883
H 1.8367269966 1.4396680635 0.9620414017
