17
Molecule 4969 / 7211 from QM7b dataset
C -2.7814104329 -1.1488624489 -0.0266823086
N -1.3499815329 -1.0652832889 0.2514345514
C -0.8312354329 0.3020781311 0.1355165914
C 0.6426563571 0.3457341711 0.4095307814
C 1.5601712871 0.8153356011 -0.4469755386
C 3.0348776771 0.8747596611 -0.1901263786
H -3.1014020029 -2.1996781689 0.0005798014
H -3.0827271929 -0.7171541689 -1.0054356586
H -3.3378524229 -0.6114001089 0.7572412214
H -0.8379544029 -1.6607351789 -0.4047134086
H -1.3650148729 0.9126051511 0.8880932214
H -1.0430888229 0.7682755111 -0.8532233086
H 0.9590552771 -0.0539472289 1.3804094114
H 1.2185652371 1.1985908611 -1.4172969486
H 3.2898404671 0.4661273611 0.7975264114
H 3.4056904671 1.9113888111 -0.2385696586
H 3.5944022671 0.3086394911 -0.9522318286
