15
Molecule 3785 / 7211 from QM7b dataset
C -0.1338632768 -2.1509051768 -0.1245008019
C -0.7583588568 -0.7824480368 -0.1886578119
N -2.0025690068 -0.4877901868 -0.4261223119
N 0.0527722732 0.3106938732 0.0241924081
O -0.6047156868 1.5388018332 -0.0530188719
C 1.4076172932 0.3521973732 0.3002643481
C 2.1232621332 1.4741495432 0.4962217681
H 0.6562015832 -2.2707479868 -0.8791699319
H -0.9046250168 -2.9060793068 -0.3143679219
H 0.3038550732 -2.3495959968 0.8639658581
H -2.5807695768 -1.3140414268 -0.5800680719
H -1.5334065768 1.1956781432 -0.2556836319
H 1.8608594632 -0.6366200868 0.3470467681
H 1.6657998732 2.4592851732 0.4483522781
H 3.1864440532 1.3934188032 0.7076199381
