13
Molecule 5598 / 7211 from QM7b dataset
C -2.0905028053 0.1862289996 0.4476625776
C -0.7743332553 0.3072060796 0.2408060076
C 0.1009760947 1.5280770496 0.2067105076
C 1.3642603547 1.0091611196 -0.5041875124
O 1.3555068447 -0.4364667704 -0.3666611324
C 0.0970107547 -0.8828980904 -0.0205501924
O -0.1746455753 -2.0605039304 0.0461714776
H -2.5441425453 -0.8062083104 0.4412452576
H -2.7331137753 1.0490681296 0.6260836376
H 0.3422461747 1.8494863696 1.2323666976
H -0.3535191253 2.3800585996 -0.3152548324
H 1.3567421847 1.2438605696 -1.5796179124
H 2.3004300747 1.3728492996 -0.0635539424
