12
Molecule 1044 / 7211 from QM7b dataset
O -1.9948410654 -0.1019938330 0.6986394497
C -0.8433352854 -0.0316938830 0.3196208397
C -0.0037942854 1.2305955770 0.1131867997
C 1.1947998346 0.7047104470 -0.6749669503
O 1.3657537446 -0.6639609430 -0.2415786503
C 0.0595335346 -1.2055834730 -0.0669895203
H 0.2977113246 1.6008091370 1.1060854297
H -0.5912554154 2.0137507870 -0.3816757203
H 0.9964546446 0.7369676670 -1.7638041303
H 2.1385754646 1.2251926970 -0.4720884203
H -0.3334326554 -1.6569137430 -1.0018022103
H 0.0814224146 -1.9803403430 0.7116916397
