19
Molecule 5964 / 7211 from QM7b dataset
N -3.5096166842 0.3482355606 -0.6770254700
C -2.1369264442 -0.1775497294 -0.7372503600
C -1.3443538542 0.2479360206 0.5074788100
C 0.0172721058 -0.3774797394 0.5735221600
C 1.1810815558 0.2873598406 0.5652660000
C 2.5336733658 -0.3584863594 0.6401910800
N 3.3690326858 0.0670996506 -0.4983344700
H -4.0386634942 0.0315766106 -1.4929341500
H -3.4886867042 1.3704640906 -0.7359066100
H -1.5696474542 0.1290350706 -1.6394889600
H -2.2019293242 -1.2782151394 -0.7626441800
H -1.9392233142 -0.0378552694 1.3923250600
H -1.2501008942 1.3471696606 0.5266555000
H 0.0427064158 -1.4742765794 0.6327297800
H 1.1831928258 1.3814728006 0.4898804200
H 2.4075197458 -1.4561332294 0.7356494900
H 3.0454416458 -0.0163572794 1.5571952300
H 2.9793414158 -0.3115897094 -1.3655824100
H 4.3096567558 -0.3233176994 -0.4056057300
