17
Molecule 6070 / 7211 from QM7b dataset
O -0.8005423510 -1.9797652191 -1.4562847269
C -0.4359808710 -1.5908205491 -0.1245207269
C 0.4957812790 -0.3885043191 -0.2111402069
C -0.1769010410 0.8505250809 -0.8648545969
C 0.0510060690 1.9675502909 0.1625711931
O 0.1056734990 1.3031085909 1.4320647031
C 0.8905611390 0.1297171709 1.1945897631
H -1.4179207010 -2.7275596591 -1.3927367069
H 0.0776570790 -2.4210647791 0.3969216831
H -1.3303299910 -1.3146621291 0.4677769231
H 1.3914962790 -0.6900717591 -0.7755319269
H -1.2511604610 0.6624018009 -1.0042856769
H 0.2475402890 1.0892177909 -1.8488845569
H 1.0067882290 2.4963513109 -0.0301514369
H -0.7575719110 2.7092926609 0.2101415631
H 1.9689434090 0.3804436509 1.2249251831
H 0.6767091490 -0.5819019091 2.0057125931
