17
Molecule 4853 / 7211 from QM7b dataset
C -1.7309324729 0.0868269444 0.4426681685
C -0.2000107229 -0.0124299856 0.5443142885
C 0.2614148771 -0.0004696856 2.0015071985
C 0.3288794271 -1.2249099656 -0.2679314815
C 0.6324543871 -0.5731818556 -1.5925377915
N 0.6701557671 0.7173710644 -1.5353666215
N 0.4473687171 1.1070862044 -0.2178396415
H -2.0510110929 0.0905403444 -0.6093693315
H -2.0942599129 1.0087662544 0.9221887785
H -2.2135582229 -0.7642769756 0.9468485985
H 1.3571424771 -0.0465695756 2.0579096185
H -0.1582972229 -0.8560085956 2.5508674485
H -0.0687045229 0.9171257744 2.5114100085
H -0.4001229529 -2.0461241756 -0.3318003415
H 1.2513801271 -1.6351550556 0.1818949485
H 0.8693068671 -1.0854681656 -2.5245854015
H -0.0653799029 1.9909565744 -0.2010427815
