13
Molecule 3902 / 7211 from QM7b dataset
C -0.1846825273 -2.4047944286 0.3442350175
O -1.0052132973 -1.2595707386 0.1104717075
C -0.3633381973 -0.0734793586 -0.0163255525
N -0.9941384673 1.0600959114 -0.2264043125
C 0.0081086727 2.0134974614 -0.2947475125
C 1.2477669527 1.4492986714 -0.1244461425
N 1.0012261127 0.0874036714 0.0569756275
H -0.8703257273 -3.2551437786 0.4204670175
H 0.3770913327 -2.3126189586 1.2894580175
H 0.5110106927 -2.5810055786 -0.4939858425
H -0.2270406773 3.0601886214 -0.4641422725
H 2.2527298527 1.8549402414 -0.1122039525
H 1.7014979827 -0.6294257886 0.2103393075
