17
Molecule 3998 / 7211 from QM7b dataset
C -1.6647207751 -0.0826209750 1.1567652220
C -0.1642557951 -0.1957449950 1.2579155120
C 0.6698720149 -1.0342649750 0.3603212420
C 0.1196471449 -1.8762124650 -0.7634796880
N 0.7647459249 0.4725537450 0.2688301420
N 0.0300986349 0.9619313550 -0.8711489880
C 0.5764034049 2.0154887250 -1.3451461780
H -1.9956408251 0.9170794150 1.4756270020
H -2.1324508951 -0.8187728550 1.8274368020
H -2.0368681351 -0.2469703050 0.1406967920
H 0.2198024349 -0.0438367750 2.2719932020
H 1.5966998649 -1.4280332850 0.7902797620
H -0.8121324751 -1.4781957150 -1.1773251580
H -0.0641908451 -2.8976557350 -0.3983200880
H 0.8484710249 -1.9415400450 -1.5851420580
H 0.1051247849 2.4794391450 -2.2163636680
H 1.4855971849 2.4572185650 -0.9109073280
