19
Molecule 6861 / 7211 from QM7b dataset
C -2.0648699370 -1.5217847716 0.4332865183
C -0.5373681170 -1.3756891716 0.3063506383
C 0.0552546230 -2.5492258516 -0.4954022117
C -0.1764851370 -0.0612306716 -0.3258451617
C 0.5565483030 0.9114392984 0.2536807883
C 0.8924527630 2.1741181984 -0.3777374517
C 1.6240354030 3.1458958984 0.2009368683
H -2.4948011870 -0.7079391216 1.0335164483
H -2.3254435470 -2.4784403616 0.9104077483
H -2.5435004770 -1.5004694316 -0.5585593317
H -0.1026240670 -1.3963520916 1.3212786283
H -0.3472597570 -2.5653084416 -1.5205905017
H -0.1962422770 -3.5099541016 -0.0215588817
H 1.1493852330 -2.4732714016 -0.5631253217
H -0.5511540370 0.0993753884 -1.3463742417
H 0.9331231130 0.7562319084 1.2727113883
H 0.5137427630 2.3256846384 -1.3951273417
H 2.0187772630 3.0314329384 1.2133972883
H 1.8485895730 4.0778725084 -0.3175958117
