15
Molecule 4769 / 7211 from QM7b dataset
C -2.4184846409 0.0718088257 -0.2270653240
C -0.9313728809 0.0267532357 -0.0270192440
N -0.3209402809 1.1380967657 0.2952377860
N 1.0290578191 1.0472386157 0.5249208260
C 1.8137289791 0.1010698357 -0.2722787640
C 1.1386560191 -1.2378910243 -0.1155758940
C -0.2076011009 -1.2418297643 -0.0590574240
H -2.9345440609 -0.5926048643 0.4847462460
H -2.6967846409 -0.2606849743 -1.2394318440
H -2.7839947309 1.0952095657 -0.0799611440
H 1.4274619891 1.9809111757 0.5915642260
H 2.8404770491 0.0932016657 0.1201988460
H 1.8640795291 0.3948185457 -1.3476885940
H 1.7293841391 -2.1543827043 -0.0888106840
H -0.7724602909 -2.1732827343 0.0242525660
