15
Molecule 6290 / 7211 from QM7b dataset
C -1.7800162938 -2.0908503829 -0.0176420732
C -0.4161696038 -1.4905215429 0.2599680968
O 0.5057846162 -2.1637117429 0.7141742268
C -0.2673139538 -0.0396123429 -0.0529498232
C 0.8853539062 0.6084993071 0.1857804368
C 1.1563700362 2.0508938871 -0.0935176032
O 0.1046598862 2.7672024871 -0.7314486932
H -2.5565291038 -1.5488063329 0.5438705068
H -1.7890882138 -3.1501016429 0.2602645768
H -2.0297560738 -1.9850816829 -1.0852411632
H -1.1293678738 0.4940673871 -0.4631465332
H 1.7122004362 0.0332285671 0.6197731968
H 2.1043921062 2.1291219271 -0.6638205632
H 1.3422184762 2.5727414271 0.8618533468
H -0.0069703138 2.3964508471 -1.6251918432
