15
Molecule 2759 / 7211 from QM7b dataset
C -2.7276991455 -0.3291244905 0.1649612455
N -1.3632342955 -0.7068859905 0.5262486955
C -0.7231986355 -1.6948220105 -0.3344697545
C -0.3162407255 -0.2490300205 -0.4080520245
C 0.9383426845 0.2358279195 0.1924455655
N 1.5952120045 1.1676278195 -0.3972147645
O 2.7731291945 1.4885312695 0.3215645655
H -2.9328853955 0.6825254895 0.5419244855
H -3.4291518955 -1.0263425005 0.6455360355
H -2.9132498855 -0.3432346605 -0.9280280445
H -1.2848320355 -2.0792673705 -1.1935267345
H -0.0785311055 -2.4205722005 0.1678475155
H -0.6373702355 0.2949664695 -1.3032240545
H 1.2810271545 -0.2101567805 1.1362071055
H 3.1588908145 2.1915302095 -0.2318005445
