17
Molecule 3138 / 7211 from QM7b dataset
C -0.1506964079 -2.4963729464 -0.5387861055
C -0.6999237679 -1.2393965964 0.1270621345
N 0.3012270921 -0.1684356864 0.1350400945
C 0.3090147221 0.6932906536 -1.0573998055
C -0.2174224179 1.1992638536 0.2466156345
C 0.5463505421 2.1704424336 1.1124221145
H -0.8907031979 -3.3084044464 -0.5054268855
H 0.7624445321 -2.8347666764 -0.0299254955
H 0.0983854721 -2.3070915964 -1.5933982255
H -0.9617490979 -1.4516924664 1.1769150045
H -1.6354010279 -0.9191589364 -0.3826054855
H -0.4211859979 0.4793286436 -1.8464428555
H 1.2954739921 1.0075398836 -1.4086002455
H -1.3115007579 1.2889199136 0.2943083445
H 1.6279618021 2.0149605436 1.0010741945
H 0.2912151721 2.0367683836 2.1744977745
H 0.3125334421 3.2092821736 0.8348393745
