18
Molecule 1012 / 7211 from QM7b dataset
N -1.9579248018 -0.1582864335 -0.8751278792
C -0.4887555918 -0.1817487135 -0.9224653692
C 0.1029977182 -1.3276444835 -0.0362117092
C 0.9287022482 -0.4816919535 0.9527271608
C 1.6077525782 0.5445790565 -0.0026457992
C 0.1416689582 1.0278479365 -0.1952199392
C -0.0674560818 0.6625212665 1.3019162408
H -2.3276663318 -1.0288765835 -1.2663784292
H -2.3109397518 0.5920001865 -1.4760174492
H -0.0889899518 -0.2430340735 -1.9543860692
H 0.7222374182 -2.0318094635 -0.6110074492
H -0.6994711618 -1.8883925535 0.4663569708
H 1.4938351582 -1.0176942135 1.7264800208
H 2.1502714682 0.1591717465 -0.8809936592
H 2.2218359982 1.2801682365 0.5346220608
H -0.0954741718 2.0232424965 -0.5957328292
H 0.3741345082 1.4090740565 1.9760329508
H -1.0837585418 0.3909765465 1.6183155308
