14
Molecule 1971 / 7211 from QM7b dataset
O -0.4923569450 -1.6713973420 0.9252767019
C -0.9432569950 -0.9932245520 -0.2617508281
C -0.3706423950 0.4254992480 -0.2088491481
O -0.8068201950 1.0785432080 0.9948774319
C 1.1328314250 0.4435975880 -0.3266187181
C 1.7959590750 1.0678558980 -1.3049470281
H -1.0087528650 -2.4864194120 1.0286744719
H -2.0450859050 -0.9293308620 -0.2793014481
H -0.5922612150 -1.5096135920 -1.1726988181
H -0.8053904450 0.9999569180 -1.0435934481
H -0.6771080750 0.4229023680 1.7081080519
H 1.6781854050 -0.0910117920 0.4578310919
H 1.2685147650 1.6118965780 -2.0934306081
H 2.8859687950 1.0620837780 -1.3538280281
