12
Molecule 2395 / 7211 from QM7b dataset
C -1.5831322020 0.1669272095 0.0328218250
C -0.0746154420 0.0929425795 0.0023233450
N 0.5985622980 -1.0241958905 -0.0596985750
N -0.1132387320 -2.1806334505 -0.1503446650
C 0.6680623480 1.3061270895 0.0351038050
C 1.2219346980 2.3900745195 0.0747555950
H -1.9215953320 1.2075775395 0.0591142550
H -1.9926271820 -0.3419814705 0.9230353250
H -2.0134933720 -0.3200849005 -0.8573539250
H 0.4558593680 -2.9781405505 0.1212266950
H -1.0560641620 -2.1980198305 0.2523109650
H 1.7371593080 3.3280262095 0.1019419450
