19
Molecule 7010 / 7211 from QM7b dataset
C -2.1514022851 0.2008698349 0.7896890692
C -0.6416969151 0.1479561349 0.5008422292
C -0.3664527751 -0.7420188351 -0.7404781608
C 1.0891882049 -0.9967764851 -0.9992339808
C 1.6549333049 -2.2084950551 -1.0481476908
C -0.0941811251 1.5376158749 0.3118202392
C 0.8421337949 2.1184716749 1.0703861392
H -2.3591538251 0.7957678949 1.6898658592
H -2.5566678251 -0.8104742951 0.9425428492
H -2.6969507951 0.6586471549 -0.0506489708
H -0.1313589151 -0.3110583351 1.3656316892
H -0.8172171251 -0.2459893751 -1.6210001408
H -0.8928591251 -1.7025340351 -0.6154378408
H 1.7158296549 -0.1096090251 -1.1438252108
H 1.0662951449 -3.1186289151 -0.9023549408
H 2.7220652549 -2.3335319551 -1.2382860608
H -0.5272860451 2.1021238849 -0.5251819108
H 1.3000278349 1.5923323949 1.9121524492
H 1.1821425449 3.1372157449 0.8772751592
