15
Molecule 3527 / 7211 from QM7b dataset
C -2.4365390436 0.0416218796 0.5487744603
C -1.1185600436 0.1536100096 0.3130425103
C -0.2823819136 1.4211290996 0.2670640803
C 1.0367307364 0.9924256896 -0.4029915797
C 1.0576174464 -0.5236426904 -0.2948943997
N 2.0857841964 -1.2496247804 -0.5414648897
N -0.2305164536 -0.9019746504 0.0832848403
H -2.9406595836 -0.9241528004 0.5804034303
H -3.0351202336 0.9328037496 0.7255775203
H -0.1017189536 1.7654013196 1.2972767903
H -0.8034564336 2.2273747796 -0.2636363497
H 1.0549997764 1.2550343896 -1.4716638697
H 1.9352729764 1.4215300296 0.0550278003
H 1.8810334664 -2.2521208404 -0.4302077997
H -0.5184283036 -1.8755385404 0.1285123903
