16
Molecule 4802 / 7211 from QM7b dataset
C -2.8234627333 -1.2927237298 -0.2536003964
N -1.3869810333 -1.1564565498 -0.0817491264
C -0.7593095133 0.0382797302 0.0764871936
C 0.5944562567 0.2446902702 0.0447820436
C 1.5872879867 -0.8513616498 -0.2164809964
C 1.0546819767 1.6001921502 0.2817625936
O 2.2307188467 1.9700360102 0.2859941536
H -3.1624319533 -2.2512181598 0.1619187536
H -3.1309548533 -1.2387154098 -1.3121169364
H -3.3305897533 -0.4887481198 0.2955206736
H -0.8101705133 -1.9506121598 -0.3470161364
H -1.4265058233 0.8848214302 0.2707496036
H 1.5433442367 -1.6416939698 0.5517632836
H 2.5987649967 -0.4237054698 -0.2045761164
H 1.4304960967 -1.3284175098 -1.1986949864
H 0.2292401867 2.3387365102 0.4690398936
