19
Molecule 4546 / 7211 from QM7b dataset
C -2.0980111792 -1.0577970642 0.0197338222
C -0.6130068192 -0.8817145442 0.3311568622
N -0.0805523992 0.4281513358 -0.0664446478
C -0.6259126292 1.4965449258 0.7673529622
C 1.3883183808 0.4561563658 -0.0247644278
C 2.0549844608 -0.3800619542 -1.1151840878
H -2.4069337092 -2.0895994242 0.2404252122
H -2.2930387892 -0.8570987542 -1.0433706878
H -2.7357672092 -0.3923188342 0.6176895022
H -0.0527345392 -1.6508881142 -0.2191852378
H -0.4290525892 -1.0696529842 1.4163750222
H -1.7183681392 1.5410086858 0.6694978022
H -0.2221860192 2.4634959558 0.4353449322
H -0.3808724092 1.3707229458 1.8475309822
H 1.7702108508 0.1472929058 0.9774907422
H 1.6889929608 1.5075077258 -0.1581585378
H 1.8924668408 -1.4586992242 -0.9818081478
H 3.1415247408 -0.2126679542 -1.1013449878
H 1.6713915208 -0.0949286542 -2.1051448478
