19
Molecule 5872 / 7211 from QM7b dataset
C -1.8011174060 -0.4001738810 0.2741358973
C -0.2858680660 -0.5846896110 0.4482251073
C 0.0152290240 -1.3786288510 1.7191704273
O 0.2395327540 -1.3773101110 -0.6354702427
C 0.4612815040 0.7821556490 0.4963777673
C 0.3170312640 1.5866855090 -0.7611645127
C 1.2610473440 1.6877444290 -1.7081878327
H -2.0359119560 0.1159030890 -0.6678943127
H -2.2325238360 0.1823708190 1.1024027773
H -2.2904717660 -1.3836141410 0.2483687073
H -0.3706038160 -0.8585753610 2.6071099973
H 1.0986516140 -1.5205092910 1.8341825773
H -0.4564684460 -2.3695715410 1.6624485873
H 0.2627746140 -0.7992386710 -1.4225123727
H 1.5259122940 0.5679917090 0.6790568873
H 0.0813221940 1.3560836690 1.3579807273
H -0.6398761160 2.0961700190 -0.9190146127
H 2.2360738040 1.2073159490 -1.5902054327
H 1.0992374040 2.2655951790 -2.6195027127
