16
Molecule 4007 / 7211 from QM7b dataset
C -2.2776541740 0.1056857498 0.6866508377
C -0.9582908940 0.0550659798 0.4596033077
C -0.1348369940 -1.2102547602 0.4835407977
N 0.8228790960 -1.2242478302 -0.6329491723
C 1.6766191460 -0.0370871602 -0.5534888323
C 0.7880802760 1.1858926798 -0.6976783423
O -0.2456595240 1.2308251898 0.3130940777
H -2.8032007040 1.0594791998 0.7103901477
H -2.8366258040 -0.8076872902 0.8816502577
H -0.8020357440 -2.0787304402 0.4061525277
H 0.3790114760 -1.2543949402 1.4714569877
H 1.3925855560 -2.0707355302 -0.5785506123
H 2.2393708760 0.0318947298 0.4039756577
H 2.4038389260 -0.0507780202 -1.3796850423
H 1.3589195960 2.1149259598 -0.5683963823
H 0.3097541860 1.1833446898 -1.6928685723
