14
Molecule 1562 / 7211 from QM7b dataset
C -0.4665566716 -1.5488045272 1.8422227560
O -0.6951420216 -1.2987599372 0.4381760960
N -0.2754976216 -0.0129753472 0.0998577360
C -1.1418851416 1.0970197428 -0.3519949240
C 0.1327975084 1.6974030728 -0.9964636740
C 0.8530671984 0.3721071128 -0.6232104340
O 1.9219278884 -0.1502316272 -0.8479968540
H -0.8476850716 -2.5628419672 2.0141486060
H -1.0192209516 -0.8303575272 2.4668342160
H 0.6072556184 -1.5074681972 2.0740358560
H -1.6025140616 1.6646977028 0.4680339060
H -1.9024308316 0.7769058728 -1.0790319640
H 0.0720012684 1.8472495428 -2.0806115540
H 0.5422530884 2.5882221128 -0.5071694940
