15
Molecule 6247 / 7211 from QM7b dataset
C -1.9213389661 0.8880008875 -0.3888101205
C -0.6180192561 0.2623470775 0.0251853295
C -0.4501451161 -1.2610846025 0.0325011295
C 1.0341572039 -1.4625415025 -0.1734040705
C 1.6834776339 -0.2962332225 -0.3363997905
C 0.7287360939 0.8411198475 -0.2066993505
O 0.0906960339 0.9087521575 1.1103233395
H -1.8436961261 1.9826631275 -0.3775979805
H -2.7277622961 0.5955020875 0.3008927295
H -2.2062267961 0.5628769975 -1.4002758005
H -1.0419134161 -1.7337832825 -0.7705595005
H -0.7998794361 -1.6929979025 0.9846169395
H 1.5035757939 -2.4472763825 -0.1510626105
H 2.7545485639 -0.1771139925 -0.4980459905
H 0.8945798839 1.8104611775 -0.6847932605
