15
Molecule 5649 / 7211 from QM7b dataset
O -0.4927446055 -1.9713873131 -1.5658512587
C -0.5374235955 -1.5046662231 -0.2112807287
C 0.4479387245 -0.3363054831 -0.0987947487
O 0.5452817645 0.0533369169 1.2874479613
C 0.2865595145 1.4651597169 1.4150439613
C -0.0763585655 1.9258927369 0.0353449813
C 0.0229347445 0.9083809769 -0.8249294487
H -1.0734771855 -2.7462409331 -1.6363538887
H -0.2271374255 -2.2894145931 0.5010274913
H -1.5476862455 -1.1537291931 0.0677260413
H 1.4353354145 -0.6935309631 -0.4568083787
H 1.1899807545 1.9752715769 1.8039300713
H -0.5253800655 1.6228483169 2.1494662513
H -0.3664721555 2.9500667069 -0.1976064987
H -0.1673652955 0.9283619069 -1.8964588087
