20
Molecule 5783 / 7211 from QM7b dataset
C -1.9496048310 -0.7062114271 0.1618149389
C -0.4551508010 -0.8507392471 -0.1537465411
C -0.2183742010 -1.2508258771 -1.6156709711
C 0.3390693390 0.4017261229 0.2304428189
C 0.0332090990 1.6816296329 -0.5231920611
C 0.8310490990 0.5178727129 1.6322389389
N 1.7603831190 0.1101371929 0.5478817689
H -2.1129776510 -0.4156029271 1.2104795289
H -2.4749698210 -1.6569706071 -0.0108596611
H -2.4283474810 0.0516135329 -0.4779177911
H -0.0466878610 -1.6578425971 0.4785315989
H -0.6494301410 -0.5160083171 -2.3135496911
H -0.6873943310 -2.2217570971 -1.8329688811
H 0.8575420290 -1.3385727871 -1.8245790711
H 0.6239920090 2.5189754729 -0.1232073211
H -1.0286877310 1.9582512729 -0.4403274011
H 0.2707170090 1.5818664229 -1.5932985911
H 0.6055364890 -0.2714413171 2.3551109989
H 0.9299526890 1.5187031929 2.0620718289
H 2.3368867390 0.9171139029 0.2840193289
