15
Molecule 2522 / 7211 from QM7b dataset
C -1.9914187238 -1.5521116944 -0.5737077555
C -0.6187370738 -1.0049939944 -0.2032353955
C -0.5064830638 0.4989982756 -0.3152784555
O -1.4419886538 1.2223248656 -0.6115310355
C 0.8869716162 1.1370962756 -0.0847510855
C 1.8367864962 0.3869467856 0.7196323245
C 2.6240059762 -0.2399194244 1.3988567645
H -2.0124501638 -2.6449815744 -0.4685548155
H -2.2515541538 -1.2984532744 -1.6102670655
H -2.7718731638 -1.1256358544 0.0699029145
H 0.1841692062 -1.4451551044 -0.8217401555
H -0.3335742438 -1.2712052344 0.8298992045
H 0.7130732062 2.1385047356 0.3369309445
H 1.3036160462 1.3015901856 -1.0949947955
H 3.3177511362 -0.7893601444 2.0019736745
