19
Molecule 4022 / 7211 from QM7b dataset
C -3.0249057680 -1.0348034628 -0.4327164699
C -1.6936787480 -0.9544617828 0.2520881501
C -0.6360086980 -0.2559381028 -0.1860479299
C 0.7060767820 -0.2104899628 0.4971565401
N 1.7745892520 -0.8964236528 -0.2692443499
C 1.1698959520 1.2326431472 0.7757135201
N 1.5245470720 1.9231204372 -0.4776133899
H -3.2768178080 -2.0743806828 -0.6993114599
H -3.0416435680 -0.4327261028 -1.3519664399
H -3.8341627080 -0.6779103828 0.2249418801
H -1.5958249380 -1.5205907028 1.1882356901
H -0.7095707580 0.3216307872 -1.1162749699
H 0.6259124420 -0.7224540728 1.4718636901
H 1.7904183220 -0.4890237928 -1.2111670599
H 1.5023770520 -1.8737555028 -0.4040164299
H 2.0062170720 1.1890881672 1.4984566301
H 0.3422627420 1.7782323172 1.2530089501
H 2.4987450220 1.7189988672 -0.7124458699
H 1.4698557420 2.9343145972 -0.3504832999
