17
Molecule 4061 / 7211 from QM7b dataset
C -1.5903934446 0.1678652787 1.2968734853
C -0.0691484946 0.1723394487 1.1457798853
C 0.4898690654 -1.1415512713 0.5918981753
O 0.1413909354 -1.3247103513 -0.7847740747
C 0.6698884354 -0.2390463213 -1.5566770347
C 0.1210551354 1.0887687087 -1.0583272647
O 0.4019394454 1.2752212387 0.3347809053
H -1.9424888746 1.1616809687 1.6045653653
H -1.8870588446 -0.5566735113 2.0694301653
H -2.0956208146 -0.1161246513 0.3639891853
H 0.3917620054 0.3547949387 2.1305060353
H 0.0794250354 -2.0053021713 1.1349270453
H 1.5924004354 -1.1421122413 0.6994336453
H 1.7762853654 -0.2393900213 -1.4908114047
H 0.3737767754 -0.4210229613 -2.6001043247
H 0.6040399954 1.9292766187 -1.5785590747
H -0.9667883046 1.1405308687 -1.2507147647
