18
Molecule 2992 / 7211 from QM7b dataset
N -0.6924908231 -2.1989198844 1.2842860876
C -0.5152384931 -1.7630406944 -0.1185308124
C -0.0182112231 -0.3498079244 -0.1989322124
C 1.1217505569 0.0731427056 -0.7693304424
C 1.3112008869 1.5643033656 -0.6480086824
C -0.0863764631 2.0565130156 -0.1933829224
C -0.7815279531 0.8111641756 0.4091943976
H -1.0400484231 -3.1610859244 1.2943294176
H -1.4248784031 -1.6363339544 1.7263591576
H -1.4487933131 -1.8374886944 -0.7189046224
H 0.2208519469 -2.4326412244 -0.5893921524
H 1.8613152969 -0.5858961144 -1.2294866224
H 2.0910863769 1.7924123156 0.1021652176
H 1.6394015369 2.0379423656 -1.5869838624
H -0.6531832831 2.3951665356 -1.0739301724
H -0.0361193631 2.9004795256 0.5082637576
H -1.8604106231 0.7785921256 0.1804502476
H -0.6913698531 0.7876443756 1.5110710676
