14
Molecule 856 / 7211 from QM7b dataset
C -2.5691305236 -0.2280551550 0.1763843467
C -1.0815714936 -0.2290090950 0.0682986567
C -0.2592465936 -1.2923677350 -0.0378308433
N 1.0907689164 -0.8930060450 -0.1178111433
C 1.2192991064 0.4896707050 -0.0669689333
O 2.2657117364 1.1209447350 -0.1155932333
C -0.2219971536 1.0116710350 0.0604479767
H -2.9713656436 -1.2503081650 0.1564956667
H -3.0344707036 0.3336898650 -0.6503865533
H -2.9066056736 0.2490155250 1.1114024867
H -0.5116297436 -2.3502915250 -0.0658633033
H 1.8901393164 -1.5125464050 -0.2035189633
H -0.4394711036 1.6898437150 -0.7804185133
H -0.3117928036 1.6126228950 0.9797258267
