14
Molecule 1332 / 7211 from QM7b dataset
C -1.5895098631 -0.3067196183 -0.2878810608
C -0.0602912231 -0.3162565483 -0.1486564408
C 0.4012549869 -1.0565735483 1.1009914092
O 0.5589893369 -0.9672427983 -1.2748476408
C 0.4095925469 1.1489654617 -0.1251511408
O 0.5230544169 1.8369562517 0.8682565592
H -1.9074472131 0.2536580417 -1.1820902708
H -2.0588422731 0.1615044117 0.5880926692
H -1.9507803631 -1.3409994583 -0.3792070608
H 0.0960005769 -0.5051636083 1.9986829192
H 1.4955831869 -1.1444102683 1.1022785592
H -0.0319261531 -2.0650151183 1.1215176992
H 0.0942913769 -0.6896272083 -2.0845489308
H 0.6404921469 1.5558511017 -1.1478135308
