18
Molecule 4544 / 7211 from QM7b dataset
N -2.4840788027 -0.8172784548 0.8553879777
C -1.0506696827 -0.7840482448 0.6490005677
C -0.5433359827 -1.1205299748 -0.7335769523
C -0.4958966527 0.3091782052 -0.2368544223
C 0.7821421073 1.0197938452 0.1001681977
C 2.1178244673 0.3161577952 0.1742428077
C 1.8334989373 1.2748097552 -0.9586215723
H -2.7423737127 -0.2203356348 1.6456866577
H -2.7860259927 -1.7661536748 1.0922454677
H -0.3892438227 -1.0873147348 1.4724543377
H -1.2971283527 -1.3526194348 -1.4863343423
H 0.3837824273 -1.6894730548 -0.8125032323
H -1.2696491827 0.9512943252 -0.6684179423
H 0.6527284073 1.8301739252 0.8247599977
H 2.1632163773 -0.7470845348 -0.0654103723
H 2.8129515273 0.6285906652 0.9541184577
H 2.3432651773 2.2388514252 -0.9657419123
H 1.6556496073 0.8428516252 -1.9447247223
