12
Molecule 3061 / 7211 from QM7b dataset
C -1.2170436585 0.6383144816 0.1840983331
O -1.3904418685 -0.8012334084 0.0985434031
C -0.2753747385 -1.5192749884 0.3233204031
C 1.0068201715 -1.0753991984 0.3724440331
C 1.5318942615 0.2459631116 0.0944143431
N 1.0125089915 1.3139964216 -0.4262144969
O -0.3755305085 1.1941499716 -0.7899637269
H -2.2204462485 1.0398159716 0.0037483031
H -0.8478115885 0.8739997116 1.1938032631
H -0.5099145485 -2.5711178284 0.4983552531
H 1.7496997315 -1.8256134184 0.6452763231
H 2.5909125115 0.4039876716 0.3280182531
