15
Molecule 2718 / 7211 from QM7b dataset
O -0.4163359201 -1.9843741516 0.5209175399
C -1.1309635201 -1.3252143516 -0.5400169701
C -0.7258347301 0.1243081584 -0.5829903301
C -1.6452424001 1.1007974784 -0.6015354501
C 0.7572745199 0.4277007984 -0.6226613101
C 1.3405420299 0.6151618684 0.7744667199
O 2.0138555199 1.5762837684 1.0959518199
H -0.5594781701 -2.9407386716 0.4281692999
H -2.2227973601 -1.4065406616 -0.3974041301
H -0.8761900401 -1.7897246016 -1.5136747201
H -2.7117787801 0.8764057684 -0.5419599801
H -1.3604230001 2.1509334484 -0.6885137601
H 0.9701029999 1.3371270884 -1.2005025601
H 1.3011419499 -0.4175067416 -1.0803915801
H 1.1046102099 -0.2017562716 1.4957465999
