16
Molecule 4192 / 7211 from QM7b dataset
C -2.9443010101 -1.7880094268 -0.7408774367
C -1.9914033101 -1.4438484468 0.1319765333
C -1.3365074501 -0.0946255668 0.1815320833
N 0.1236369999 -0.2228386368 0.0780319633
C 0.8304616499 1.0488988132 0.1605555233
C 2.3232416099 0.8359993832 0.3332194533
O 3.1778504599 1.5947651632 -0.0820453667
H -3.3982245101 -2.7797902768 -0.7298121067
H -3.3093621801 -1.0820650668 -1.4915430167
H -1.6320001901 -2.1692791668 0.8692824133
H -1.5485625701 0.3774707532 1.1584430033
H -1.7784310701 0.5650284032 -0.5949897567
H 0.3478898899 -0.6853490668 -0.8072933367
H 0.4975003499 1.5641574832 1.0823668533
H 0.6594889799 1.7554420432 -0.6761535067
H 2.5844896899 -0.0943544868 0.9014017033
