16
Molecule 6280 / 7211 from QM7b dataset
N -1.4807954672 -0.2342433429 1.2869286212
C -0.0085100672 -0.1906328229 1.1330160512
C 0.4056666228 -0.9376034329 -0.1560557888
C -0.1731825872 -0.3467729529 -1.4421482288
O 0.1773642128 -1.1238703329 -2.5963072088
C 0.4499850428 1.2020944371 1.1328000812
C 0.8494937828 2.3478864271 1.1624456112
H -1.7553346072 0.3271961571 2.0962095512
H -1.7611716172 -1.1980361029 1.4885162312
H 0.5224524128 -0.6881244829 1.9723392312
H 0.0816110128 -1.9878185729 -0.0681204888
H 1.5071832028 -0.9450692429 -0.2084932788
H 0.1490204728 0.7035161271 -1.5545541688
H -1.2697296472 -0.3521716429 -1.3971293588
H 1.1376912328 -1.0403264829 -2.7298460188
H 1.1942153428 3.3616703771 1.1826892612
