13
Molecule 2651 / 7211 from QM7b dataset
C -1.7561601876 -1.2543231542 -0.7476933358
O -0.3623064176 -1.1722656242 -0.4457667158
C 0.0940812424 0.1869810958 -0.3573731158
C -0.4855097676 0.9064433658 0.7911365042
C -1.0022783376 1.4888329058 1.7208482942
C 1.5581683024 0.1816264658 -0.2992066558
C 2.7687445224 0.2091279358 -0.2707278858
H -1.9856326276 -2.3229522542 -0.8316825858
H -1.9883777676 -0.7551261542 -1.7068447058
H -2.3733666476 -0.8082985042 0.0502171542
H -0.2099611776 0.7292376158 -1.2802488858
H -1.4456406876 1.9999733358 2.5512152442
H 3.8391556024 0.2231592658 -0.2384253258
