12
Molecule 806 / 7211 from QM7b dataset
C -1.4322026296 0.0573208246 -0.1793040896
C 0.0599272004 0.1050399546 0.0158942304
C 0.7629590604 -1.2261342854 -0.0028453696
C 0.7207116204 1.2589185046 0.1961855904
H -1.8811078796 1.0585576246 -0.1554377296
H -1.9100060696 -0.5562356754 0.6021730604
H -1.6864592496 -0.4140330054 -1.1429869996
H 0.3662614104 -1.8892573654 0.7836218804
H 1.8453966104 -1.1207900554 0.1483803004
H 0.5947216304 -1.7455295654 -0.9607152096
H 0.1993621204 2.2181775946 0.2088878904
H 1.8034599204 1.2782404546 0.3364946404
