17
Molecule 6989 / 7211 from QM7b dataset
C -2.9639438907 -0.5794980842 0.0771726326
C -1.5051610907 -0.7839661142 -0.1840533974
C -0.5194796207 -0.0220881942 0.3207389726
C 0.9234432993 -0.2380635642 0.0953822026
C 1.4703060393 -1.4781260742 0.1095430426
C 1.7873601293 0.9292496158 -0.1242735474
C 1.3767784193 2.2010760158 -0.2763212874
H -3.5200792107 -0.4318846342 -0.8624370374
H -3.1436225607 0.2894462758 0.7253777426
H -3.4059585307 -1.4651598442 0.5625680526
H -1.2368579307 -1.6138093942 -0.8480407674
H -0.7902471607 0.8411206758 0.9400789926
H 0.8703611293 -2.3638161742 0.3195113226
H 2.5352339993 -1.6224452842 -0.0811987774
H 2.8596620993 0.7125700958 -0.1715662374
H 0.3211357593 2.4768105558 -0.2566088874
H 2.0945526993 3.0056661258 -0.4368161174
