17
Molecule 1403 / 7211 from QM7b dataset
C -1.8323989248 -1.2271077312 1.0639977675
N -1.2664820848 0.0029683788 0.5316547675
C -0.0185724848 -0.0286744512 -0.0780104925
C 0.4169519552 1.2490857688 -0.6925689825
C 0.0444038152 2.4718052288 -0.2839509425
N 0.6742265152 -1.1212005512 -0.0400774925
C 2.0314712052 -1.1171752712 -0.5642123625
H -2.8100487848 -1.0002406612 1.5071587075
H -1.1681827548 -1.6297557312 1.8393311675
H -1.9466100848 -2.0086301612 0.2932875775
H -1.9252218748 0.6504563088 0.1079232375
H 1.1179308652 1.1549351988 -1.5257906325
H -0.6123315548 2.6123721288 0.5771458275
H 0.4106952252 3.3701660588 -0.7830282325
H 2.4946789852 -2.0905114212 -0.3510718125
H 2.6728325852 -0.3381496112 -0.1153314225
H 2.0609129852 -0.9806181612 -1.6621952625
