12
Molecule 1130 / 7211 from QM7b dataset
C -2.1500601150 -0.6374795466 0.2538307974
C -0.6540831450 -0.6867564066 0.1628125574
C 0.0883579650 -1.8027844866 0.3072477474
C 0.0176238250 0.6079546034 -0.1065848626
O -0.5730050950 1.6707059534 -0.2524416726
C 1.4956081050 0.5956588134 -0.2028182226
N 2.6587632250 0.6500903934 -0.2896866026
H -2.4664650650 0.0516882834 1.0498181174
H -2.5641021450 -1.6323706866 0.4537548174
H -2.5814545850 -0.2479699966 -0.6793693326
H -0.3766000550 -2.7693802766 0.5058661874
H 1.1766402250 -1.7778055666 0.2303417074
