15
Molecule 321 / 7211 from QM7b dataset
N -2.0225059788 0.0466425354 0.5279762516
C -0.6142993288 -0.0691092046 0.9630399916
C 0.1618916112 1.1954119954 0.5773708716
C 0.5116993512 1.0728855454 -0.8938260684
O 1.3845810712 -0.0613154246 -1.1326105184
N 0.9815158312 -1.2722499846 -0.5748706684
C 0.0496538512 -1.2599161346 0.3187274516
H -2.5552899388 0.5735445554 1.2255237416
H -2.4550947688 -0.8783081946 0.4661648816
H -0.5240727588 -0.2346592046 2.0562675016
H -0.4505795188 2.0919371454 0.7528680216
H 1.0794784712 1.2817862954 1.1796711016
H 1.0760151312 1.9296138754 -1.2827966884
H -0.4114206788 0.9321380754 -1.4832042484
H -0.2024263788 -2.2619102146 0.6827772716
