13
Molecule 677 / 7211 from QM7b dataset
O -1.9218899078 -1.6684029359 -0.4922728421
C -0.7851782478 -1.5450520359 -0.0499221221
N -0.0527641278 -0.3827020359 -0.1285755521
N 1.2721247422 -0.2815854559 0.4366636679
C 1.4083553022 1.1712875941 0.7518285979
C 0.3348829722 1.8382286241 -0.0824758021
C -0.5073743178 0.8879030141 -0.5188632321
H -0.2009183678 -2.3517476659 0.4418052079
H 1.9040475822 -0.4682493559 -0.3531114021
H 2.4342767922 1.4931874841 0.5261990079
H 1.2344155922 1.3424846341 1.8308539279
H 0.2124941222 2.9097304341 -0.2115998321
H -1.4488350078 0.9576272241 -1.0559856321
