16
Molecule 5781 / 7211 from QM7b dataset
C -0.0012168800 -1.9261516230 0.5146552436
N 1.3133366100 -1.2629595330 0.3236030036
C 0.0615833100 -0.4912595230 0.1405376136
C -0.1723843100 0.6557707170 1.1348305636
C -0.3825909900 1.8476436070 0.2376286736
C -0.4777362500 1.5011132870 -1.0549359764
C -0.3487459000 0.0120510970 -1.2536675464
H -0.2205024000 -2.2108022330 1.5476025336
H -0.3495373000 -2.6377064130 -0.2400308564
H 1.6876857100 -1.5212227830 -0.5966993464
H 0.6924989400 0.7616292170 1.8087886136
H -1.0579896000 0.4742972470 1.7702491536
H -0.4639493500 2.8675515270 0.6166513136
H -0.6496672400 2.1944206670 -1.8794998964
H -1.3054428900 -0.4311593430 -1.5851439564
H 0.4000939800 -0.2512965230 -2.0214300164
