17
Molecule 5502 / 7211 from QM7b dataset
C -1.8906143528 0.7389971432 -1.4932701342
O -0.6295510528 0.4643946832 -0.9042547542
C -0.7596938628 -0.2689064668 0.3146951158
C 0.6247074572 -0.4662723868 0.9282837658
C 1.5394252672 -1.3025853968 0.0197288158
N 1.1604197872 0.8541474532 1.3012804958
H -1.7035633128 1.3071968632 -2.4135483142
H -2.5308992028 1.3403119932 -0.8200867642
H -2.4302540928 -0.1933126668 -1.7487471142
H -1.2336534928 -1.2516022568 0.1164667458
H -1.3977693428 0.2924731332 1.0244289058
H 0.4579160872 -1.0243203068 1.8676254758
H 1.6925242072 -0.7970794968 -0.9442555742
H 1.1096100272 -2.2970778968 -0.1800474142
H 2.5206710072 -1.4509852868 0.4939812458
H 1.2333897672 1.4237816732 0.4527002558
H 2.1125512072 0.7490272532 1.6599317358
