20
Molecule 6183 / 7211 from QM7b dataset
C -1.7194040018 -1.3525862390 0.0053723412
C -0.1966956018 -1.1878177890 0.0155987112
C 0.3471096882 0.2641981410 -0.0009621788
C -0.1078910018 1.0022282010 -1.2731924788
C -0.1289945618 1.0386816510 1.2415217412
C 1.8851302082 0.1971455110 0.0128828612
H -1.9899938518 -2.4184044090 0.0184926312
H -2.1754402618 -0.9122488490 -0.8935504388
H -2.1902281918 -0.8865464290 0.8834622812
H 0.2280482182 -1.7189217190 -0.8549338688
H 0.2134383082 -1.6933263890 0.9080950512
H 0.1873747082 0.4496159310 -2.1793136388
H 0.3498750082 2.0022325110 -1.3261575288
H -1.1992738618 1.1374432410 -1.2990595188
H 0.1509151482 0.5126349010 2.1680945412
H -1.2206239418 1.1743194910 1.2451480812
H 0.3280695382 2.0399099710 1.2731456912
H 2.2520727182 -0.3196877290 0.9136073712
H 2.3233074282 1.2073781510 0.0018758112
H 2.2669306582 -0.3454955290 -0.8662324488
