19
Molecule 6608 / 7211 from QM7b dataset
C -0.8131803748 -1.9358190478 -1.8409544201
C -0.6932922748 -1.4327643578 -0.3987037101
C 0.1630517952 -0.1864099878 -0.2593810801
N -0.3512745548 1.0785505722 -0.8999475901
C 0.0656662452 1.8447366122 0.3256449699
C 0.2566762952 0.5363086522 1.1228635599
N 1.4063081152 0.4512852722 2.0061906399
H -1.4553760248 -2.8258239178 -1.9021990301
H 0.1739408552 -2.2037679178 -2.2467496501
H -1.2391142948 -1.1644935378 -2.4984937201
H -0.2597940248 -2.2247461978 0.2374945899
H -1.6975841948 -1.2219945578 0.0126771199
H 1.1786860552 -0.3872107478 -0.6556429701
H -1.3761164848 1.0308230122 -0.9198834101
H 1.0214350352 2.3648481422 0.1429810099
H -0.6616274448 2.5761993622 0.7055972799
H -0.6477250648 0.3136464122 1.7151221099
H 2.2748126052 0.5205235122 1.4685873399
H 1.4296979452 -0.4431656978 2.4999920699
