12
Molecule 1767 / 7211 from QM7b dataset
C -2.6377917556 -0.9981890269 -0.1291810408
C -1.2048395556 -1.0453244269 0.2977041792
C -0.3086776556 -0.1113662369 -0.0285639108
O 1.0109951444 -0.2394372769 0.4147016292
C 1.8861386644 0.7534475131 0.0707857892
O 1.6345239444 1.7409092431 -0.5806944508
H -2.9030262756 -1.8878263569 -0.7217689108
H -2.8530073256 -0.1079140369 -0.7353889908
H -3.3096466456 -0.9883983469 0.7434330692
H -0.8755241456 -1.8905571669 0.9090993892
H -0.5051660756 0.7776349831 -0.6281192808
H 2.8732395744 0.4938782631 0.4962171992
