15
Molecule 3894 / 7211 from QM7b dataset
C 2.0538552581 -0.1136853970 -0.1058940776
C 0.7244517981 -0.8035853170 0.1006081624
C -0.4758367319 -1.3679938670 -0.6159365976
C -1.5790707419 -0.3897203270 -0.1421039376
N -1.4498652819 0.7632083330 0.4437486624
N -0.1652238319 1.3014196730 0.6750801524
C 0.7648829181 0.6776846030 -0.2164396376
H 2.6064599781 -0.1784447470 -1.0454173076
H 2.6800644281 -0.0688981770 0.7861995824
H 0.5769783881 -0.9187051470 1.1801231224
H -0.7424559119 -2.3917472670 -0.3021812976
H -0.3958739319 -1.3779653970 -1.7153042276
H -2.6207842219 -0.7179042670 -0.2253823576
H -0.2529201619 2.3181454930 0.6419554724
H 0.5244602281 0.8669252930 -1.2731981576
