14
Molecule 4689 / 7211 from QM7b dataset
C -0.6572634052 -2.6521428930 0.2621139806
C -1.0992599452 -1.3946438630 0.0755333606
C -0.2855948452 -0.1906341130 -0.0009583794
C -0.7879253152 1.0952222970 -0.1949835094
N 0.2710391248 1.9707698970 -0.2121571894
C 1.4524619548 1.2779841770 -0.0329577294
C 1.1404534148 -0.0582793330 0.1003096006
H -1.3521232752 -3.4903582230 0.3049817006
H 0.4037731848 -2.8823609530 0.3770931706
H -2.1779074352 -1.2355778130 -0.0323531094
H -1.8094300852 1.4402483270 -0.3197812694
H 0.1959149348 2.9732914970 -0.3375658094
H 2.4072957448 1.7927692770 -0.0158694294
H 1.8579719048 -0.8584390230 0.2542511306
