15
Molecule 3988 / 7211 from QM7b dataset
O -2.9227730203 -0.4402574592 0.6326618993
N -1.6136871803 0.1431248208 0.6866652893
C -0.9003026803 -0.3130671192 -0.2884052407
N 0.3659378797 0.1655114208 -0.5255195907
C 1.1702693897 0.9051727208 0.4711078793
C 2.4474613097 0.3169950008 -0.1823439907
C 1.5200301397 -0.6683957392 -0.9424914807
H -3.3447380103 -0.0278951692 1.4058390793
H -1.2745418403 -1.0622475392 -0.9987562007
H 0.9864836297 0.5505708808 1.4998182393
H 1.0319583197 1.9950562908 0.4376059393
H 2.9574948797 1.0247885308 -0.8468899307
H 3.1759342197 -0.1374162292 0.4978957493
H 1.6500353797 -0.7460421992 -2.0321756207
H 1.5090537397 -1.6794377592 -0.4998553407
