13
Molecule 1681 / 7211 from QM7b dataset
C -3.2865834884 -0.7724115816 -0.3962935648
C -1.8034570784 -0.8670246016 -0.4365249548
N -1.0632173984 0.0786507784 0.0353373152
N 0.3027257316 -0.2214739316 -0.1073137948
C 1.0355472416 0.7374446484 0.3688699752
C 2.4495066516 0.6666544484 0.3396759252
C 3.6659610316 0.6905974584 0.3566008952
H -3.7081564984 -1.6215513016 0.1647064152
H -3.7009925084 -0.8387124916 -1.4148033748
H -3.6078042484 0.1672411984 0.0679348652
H -1.3325259384 -1.7606568516 -0.8769468048
H 0.5701517016 1.6329068484 0.8087188252
H 4.7369230116 0.6889724384 0.3602557752
