18
Molecule 5123 / 7211 from QM7b dataset
C -0.3327294912 1.6470387929 -1.4966168805
N -1.4172452512 0.7358205429 -1.0637010905
C -0.0532449412 0.2007811229 -1.2808342705
C 0.6771866488 -0.3175130971 -0.0669534505
C 0.4877385288 0.3850816629 1.3072316795
C 0.4917588288 -1.0149418471 1.9783265095
C 0.1731110688 -1.6359047571 0.5928232295
H -0.3358154412 2.0279047929 -2.5210489805
H -0.0253696112 2.3703542229 -0.7367021005
H -2.0107845412 0.5037847429 -1.8653692405
H 0.1022672288 -0.3933250071 -2.1899621205
H 1.7510083788 -0.4013637871 -0.3067005805
H -0.5075960112 0.8495208029 1.3607062995
H 1.2512789288 1.1101731829 1.6215579795
H 1.4967926288 -1.2959998771 2.3259288395
H -0.2244953512 -1.1905334671 2.7924687995
H 0.6722548288 -2.5753322271 0.3164770495
H -0.9117481312 -1.7431784471 0.4446907895
