15
Molecule 3745 / 7211 from QM7b dataset
C 0.7149082472 1.2081670968 -0.2354165556
C -0.7389907428 1.1780653568 0.2334048944
O -1.4118792728 0.0022967568 -0.2327500756
C -0.7405068528 -1.1798507832 0.2191341344
C 0.7133561472 -1.2061195732 -0.2500767856
N 1.4647837572 -0.0017651032 0.1351696444
H 0.7357271972 1.2934621568 -1.3355181756
H 1.2310638272 2.0905236868 0.1745210444
H -1.3104914428 2.0317886568 -0.1610477056
H -0.7788613128 1.2133993068 1.3434159844
H -0.7803756928 -1.2285832132 1.3286415444
H -1.3130689128 -2.0280391132 -0.1855946656
H 1.2283818672 -2.0940784332 0.1490201844
H 0.7340074172 -1.2780353532 -1.3511425256
H 1.6025641372 -0.0080286132 1.1512432844
