15
Molecule 1168 / 7211 from QM7b dataset
N -0.3272701495 -2.1134658931 0.6868542465
C -0.9062596095 -1.1897656431 -0.3076838435
C -0.3721153195 0.2105072869 -0.1079987135
C -1.1826599195 1.2485336269 0.1415472265
C 1.1297904005 0.3537001169 -0.2173538735
O 1.6189027105 1.6920080869 -0.1743440235
H -0.6071913695 -3.0732482131 0.4755420165
H -0.7066940295 -1.8961790531 1.6122079765
H -2.0129967695 -1.1517009031 -0.3112639135
H -0.5941679495 -1.5528664231 -1.3032326635
H -2.2642610995 1.1149590069 0.2054810765
H -0.7873322495 2.2527420169 0.3021017665
H 1.4663257405 -0.1663231531 -1.1377996435
H 1.6090728805 -0.1762236431 0.6192651265
H 1.2243809005 2.1691845969 -0.9265940535
