18
Molecule 819 / 7211 from QM7b dataset
C -0.7754191096 1.7395655870 -0.8738005918
C -2.1553355896 1.2259189070 -0.5256957418
C -1.0350618796 0.2542679870 -0.7944714518
N -0.4977027496 -0.4734962630 0.3331583082
C 0.8048459104 -1.0524723430 0.0917948082
C 2.0239468204 -0.2517226330 0.4814933682
C 1.6175045204 -1.4623358030 1.2928586882
H -0.6164839996 2.1823971770 -1.8572879818
H -0.1915076496 2.1759748270 -0.0640724718
H -2.9498128896 1.3137234570 -1.2670977118
H -2.4732058296 1.3270354070 0.5124724882
H -1.0725554996 -0.2742464330 -1.7593594218
H -1.1536474496 -1.2101812830 0.6079007182
H 0.9145936704 -1.6809964330 -0.8052208518
H 1.8423404504 0.7258858170 0.9272005382
H 2.9091864704 -0.3211013830 -0.1511874718
H 2.2212583204 -2.3672875930 1.2214372882
H 1.1708696204 -1.2760599330 2.2700322482
