16
Molecule 441 / 7211 from QM7b dataset
C -1.6116244178 -2.2456479425 0.0699363560
O -0.5398863878 -1.4631776425 0.5962909560
N -0.3974263478 -0.3121975225 -0.2331678240
C 0.5206164222 0.4641111975 0.2369323960
C 1.3418445822 0.2516321775 1.4669159960
O 0.8170446622 1.6147211075 -0.4258263740
C 0.0663208022 1.8624382075 -1.6295662140
H -1.6766267578 -3.1255948125 0.7224980660
H -1.4022312278 -2.5616705625 -0.9644585440
H -2.5623186378 -1.6893090125 0.0968036960
H 0.6916164822 -0.0091879625 2.3121371660
H 1.9166433322 1.1550195275 1.6969162860
H 2.0323239922 -0.5915285925 1.3213713560
H 0.4401495822 2.8184453175 -2.0113417240
H -1.0090724778 1.9235128575 -1.4099418840
H 0.2312896222 1.0581463375 -2.3608375140
