17
Molecule 3734 / 7211 from QM7b dataset
C -2.2835483407 0.1139733074 -0.8266714835
C -0.7741113507 0.2533644174 -0.8230054235
C -0.2050458907 1.4354149474 -0.0325974935
C 1.1871614593 0.9196600674 0.3529569965
C 0.9557428593 -0.5690443926 0.4925202265
C 1.6941927693 -1.4715405426 1.1536268665
O -0.1944881207 -0.9222389126 -0.1828365035
H -2.5896233007 -0.7983212126 -1.3557330335
H -2.7408527707 0.9748813074 -1.3348914835
H -2.6679251607 0.0668441374 0.2023401765
H -0.3960179007 0.2810014674 -1.8636185035
H -0.8176282307 1.6064448074 0.8669386765
H -0.1857419407 2.3616276274 -0.6219789635
H 1.9096068993 1.1103854074 -0.4581930135
H 1.5912431793 1.3630204674 1.2715241665
H 1.4230372693 -2.5258048326 1.1625389665
H 2.5834578893 -1.1531347026 1.6927869065
