17
Molecule 566 / 7211 from QM7b dataset
C -2.1651121655 -0.1967171220 -0.0645294407
C -0.6588421255 -0.0899890820 -0.0218812607
C 0.2877400845 -0.6926517620 -1.1182005007
C 1.3343143145 -0.4569437720 -0.0052635607
C 0.2395558045 -0.8580991920 1.0097174893
O 1.3834875645 0.9905898280 0.1083385493
C -0.0392827455 1.3108204680 0.1010937993
H -2.6174580855 0.2225194880 0.8476091193
H -2.4877664555 -1.2442979720 -0.1493532207
H -2.5763962255 0.3533955280 -0.9250985107
H 0.4190845445 -0.1389786720 -2.0589665207
H 0.0815028545 -1.7550687720 -1.3041300007
H 2.3541122845 -0.8559935020 -0.0132484107
H 0.0288490945 -1.9357575220 1.0195512793
H 0.3265698045 -0.4570769420 2.0297414993
H -0.2730143255 1.9639259280 -0.7565583107
H -0.3136230055 1.8240965880 1.0381255293
