17
Molecule 375 / 7211 from QM7b dataset
C -2.4137345385 0.5483342227 0.0931442564
C -1.4373827485 1.1679009927 -0.8937009736
C -0.9762098885 0.7099587327 0.4686366264
O -0.2277924685 -0.4800584073 0.5998273464
C 1.1632858515 -0.2555576473 0.5121274064
C 2.0037956715 -1.4443699573 0.1744544664
C 1.8565040615 -0.3110417773 -0.8277869836
H -3.1515659485 1.1844849927 0.5821508364
H -2.7447643985 -0.4694338773 -0.1151468036
H -1.4935104485 2.2389407627 -1.0923636136
H -1.1466465285 0.5533883827 -1.7451984036
H -0.7169323685 1.4801007227 1.2056082464
H 1.5453536115 0.4549513127 1.2555734164
H 1.4650818715 -2.3668124473 -0.0435468636
H 2.9522334615 -1.5741821373 0.6957001764
H 2.7036233315 0.3532381627 -1.0033864636
H 1.2319167115 -0.5055560173 -1.6992580936
