15
Molecule 2735 / 7211 from QM7b dataset
N -1.8765611368 -1.5862027907 0.6441926668
C -0.7576956968 -1.5052853607 0.0118863168
N 0.1719142632 -0.5300733307 0.3203670668
C -0.2658869568 0.7607745893 0.8751722768
C 0.1764303432 1.7827250393 -0.1787045732
C 1.4201788032 1.0978601593 -0.7342875932
O 1.0748917632 -0.2913716207 -0.8160075932
H -2.3828914468 -2.4241257907 0.3421119168
H -0.3792980868 -2.1946285507 -0.7579935432
H 0.2315035032 0.9351456193 1.8411117368
H -1.3522897668 0.7089750093 1.0338102168
H -0.5868655768 1.8883136693 -0.9626291532
H 0.3864230632 2.7692761593 0.2533605668
H 1.6897701832 1.4040140693 -1.7540477232
H 2.2888831832 1.2414890693 -0.0639799732
