14
Molecule 5670 / 7211 from QM7b dataset
C -1.9212006308 -1.2048302758 -0.1275059886
C -0.4410906208 -1.3310020258 -0.3767557286
C 0.1115355292 -2.4783641358 -0.8323472286
C 0.4256242092 -0.1896768258 -0.1222565586
C 0.0098892992 1.0190232242 0.3343280614
C 0.9001801492 2.0988906542 0.5654247814
N 1.6114052592 3.0079478942 0.7653279614
H -2.3610773508 -0.4060134058 -0.7439864486
H -2.1269887708 -0.9564897958 0.9249245014
H -2.4398619208 -2.1416796558 -0.3638258186
H -0.4954421808 -3.3608651958 -1.0382548286
H 1.1853895392 -2.5580855558 -1.0094771886
H 1.4917160792 -0.3327699758 -0.3189498886
H -1.0431998208 1.2160246342 0.5469499114
