16
Molecule 6233 / 7211 from QM7b dataset
C -2.3728685338 -0.1225049197 -0.0153419886
C -0.9017894938 0.1428226603 -0.0690092486
C -0.2529144838 1.2801088703 0.2568333614
C 1.2376318062 1.1766875703 0.0257462714
C 1.4407589162 -0.2820072997 -0.3781512886
N 1.0534864762 -1.3450944697 0.5663943714
C 0.0826837262 -0.9118289797 -0.4783691886
H -2.6040623438 -0.9563681897 0.6670572314
H -2.7543249038 -0.4151504297 -1.0073159486
H -2.9317602638 0.7626309503 0.3159126414
H -0.7288407438 2.1693977303 0.6747722414
H 1.5667553962 1.8526654103 -0.7826119886
H 1.8301082662 1.4497427603 0.9165068314
H 2.2604192662 -0.5470456397 -1.0487881186
H 0.7704200162 -0.9214370397 1.4596118114
H -0.1841316438 -1.6784416797 -1.2101528086
