15
Molecule 6137 / 7211 from QM7b dataset
O -1.6039067280 -0.0833546896 1.8431540963
C -0.4351452580 -0.0265355296 1.0554192463
C -0.4882081580 0.7323500304 -0.2482920737
C 0.8274620020 1.1886781604 -0.8774008737
C 1.5788303820 -0.1058479796 -1.1106733037
C 0.8419779420 -1.1853276096 -0.7942421237
C -0.4860194480 -0.8046988796 -0.2392303437
H -1.7330353380 0.7941646404 2.2462047563
H 0.5109993120 -0.0512722896 1.6121404463
H -1.4160675080 1.2646013604 -0.4608115737
H 1.3870444120 1.8766181204 -0.2195254237
H 0.6617731520 1.7319678604 -1.8244461137
H 2.6036913620 -0.1337697396 -1.4838488837
H 1.1709553220 -2.2209003996 -0.8912559837
H -1.3874916580 -1.3862811896 -0.4371731637
