13
Molecule 3099 / 7211 from QM7b dataset
C -2.5809720250 -0.0141857364 0.8474090900
C -1.3666446650 -0.0042605464 0.8272281900
C 0.0939350350 0.0099652336 0.8019836200
C 0.7298646850 -1.1884696964 0.0016472000
N 1.1586678250 -0.6412764564 -1.2946664300
C 1.0535357650 0.6345860636 -1.1930636200
N 0.6394007350 1.1595374836 0.0332780500
H -3.6519064550 -0.0258084864 0.8612794000
H 0.4707587850 0.0370699436 1.8360465300
H 0.0177363450 -2.0130456764 -0.1356011100
H 1.6087264250 -1.5796523564 0.5389564900
H 1.3232128550 1.3248391936 -1.9963709000
H 0.0666793550 2.0029582836 0.0141813700
