16
Molecule 4502 / 7211 from QM7b dataset
C -1.7596393377 -0.1482169150 0.0681805059
C -0.2846943777 0.0256200050 -0.2644968441
C -0.0331853177 0.0771438750 -1.7646749841
C 0.4701438423 1.0916449350 0.5766077759
C 1.2505268223 -0.0947635250 1.1644118559
O 0.5142503723 -1.0543826650 0.3559504859
H -1.9092631277 -0.2059510850 1.1550612259
H -2.1436860277 -1.0754936550 -0.3817703341
H -2.3489318677 0.6951415050 -0.3230022541
H 1.0404973923 0.1745090650 -1.9760022941
H -0.5589823377 0.9314129950 -2.2178016941
H -0.3959854977 -0.8444099650 -2.2432141441
H -0.1575080077 1.6423398950 1.2888030359
H 1.0649700923 1.8026533550 -0.0109231441
H 2.3298052223 -0.1170846350 0.9385793959
H 1.1061713923 -0.2766264050 2.2424964659
