16
Molecule 2634 / 7211 from QM7b dataset
N -2.1520316376 -0.3397492901 0.8108780631
C -1.2175354376 -1.0426016701 -0.0786715369
C 0.0706678624 -0.2550678101 -0.2192493369
C 0.8793011324 -0.0355978901 1.0541895631
O 1.9455688624 0.8894260299 0.8706996931
C 0.7339808424 -0.1619885001 -1.5290115069
O -0.0539023776 0.9516609199 -1.0323255469
H -2.9790977576 -0.9162101101 0.9745612231
H -2.4774168676 0.5123817199 0.3466675131
H -1.6122191576 -1.2408551201 -1.0943168569
H -0.9803941776 -2.0204368301 0.3738735131
H 1.3308934524 -0.9901936601 1.3680575231
H 0.1860782824 0.2912106699 1.8490569031
H 1.5523765224 1.6431612399 0.3873670831
H 0.3003961024 -0.6797008801 -2.3910505469
H 1.8117867924 0.0217276299 -1.5608990569
