15
Molecule 3347 / 7211 from QM7b dataset
O -1.5676839057 0.7772440801 1.0569876104
C -0.6097763457 0.3151389001 0.1311677104
C 0.0321884943 1.2962633701 -0.8145335696
C 0.8496301743 0.6850101201 0.3275830404
C 1.6193529143 -0.5419754599 -0.0197956396
C 0.8052610243 -1.5492052199 -0.3837581696
C -0.6518594157 -1.1617751399 -0.2757612096
H -2.3589488257 1.0431439101 0.5546618304
H -0.2601820457 2.3392897201 -0.6825211396
H 0.2667262943 0.9888812301 -1.8360900796
H 1.1564414143 1.3437004001 1.1410053004
H 2.7090001243 -0.5891073299 0.0018145004
H 1.1326738443 -2.5350011499 -0.7160188396
H -1.2052957357 -1.3247661399 -1.2157581496
H -1.1677248957 -1.7448327099 0.5075927204
