17
Molecule 4167 / 7211 from QM7b dataset
O -1.9250022403 -0.1030663983 -0.8837174407
C -0.4944744303 -0.1951001583 -0.9254384207
C 0.1131481397 -1.3321534983 -0.0349484607
C 0.9160775997 -0.4646502483 0.9536406493
C 1.5878000597 0.5566560417 -0.0124572307
C 0.1178300397 1.0242309917 -0.2216334307
C -0.0949201003 0.6728492417 1.2810504593
H -2.2863791503 -0.8845906983 -1.3353641407
H -0.1527987303 -0.2625144283 -1.9745270607
H 0.7490200697 -2.0266114783 -0.6041981407
H -0.6857571203 -1.9056396283 0.4587740493
H 1.4819065997 -0.9824756783 1.7390427493
H 2.1429062197 0.1663937717 -0.8805603407
H 2.1866476197 1.3102186717 0.5167300893
H -0.1363097103 2.0056475617 -0.6403905107
H 0.3364534597 1.4347841117 1.9443196393
H -1.1084391803 0.3983247617 1.6046317993
