13
Molecule 1492 / 7211 from QM7b dataset
C 0.7048013897 -1.1630673124 0.4926315900
O -0.5345752103 -1.4452666724 -0.2036413000
N -1.5844481103 -0.5184012824 -0.0894904400
C -1.2651169003 0.7196343776 0.0844073900
C 0.1053620597 1.2627981276 0.1757928600
N 1.0222212297 0.8828966076 -0.9590978700
C 1.1851661497 0.2600700276 0.3590876800
H 1.4130484297 -1.8855730324 0.0626777700
H 0.5688428397 -1.3863539524 1.5674288000
H -2.1267446803 1.3906197576 0.1421576100
H 0.2164328697 2.2579476976 0.6106893400
H 1.7156967497 1.6311167776 -1.0702263200
H 2.0436374497 0.5262975276 0.9850042500
