15
Molecule 5773 / 7211 from QM7b dataset
C -1.9636473782 -0.2632869553 0.6197309907
C -0.4336749282 -0.3029892653 0.7409124507
C 0.2304716518 -1.5355146353 0.1697499707
C 1.1456380418 -1.1563355053 -0.7396331293
N 1.2023875118 0.2450005747 -0.8450118593
C 0.2388680618 0.8462304147 -0.0276985793
N -0.0778408482 2.0833692447 0.1031065707
H -2.3361429682 0.7141413047 0.9536112107
H -2.4226855682 -1.0509933253 1.2334603107
H -2.2729770782 -0.4142479653 -0.4240916393
H -0.1656311482 -0.1830175453 1.8066605107
H 0.0095044118 -2.5570217053 0.4648643607
H 1.8157972018 -1.7660703553 -1.3417826593
H 1.7043257218 0.7406825247 -1.5737251993
H 0.4900500918 2.6893140147 -0.5040300993
