17
Molecule 4176 / 7211 from QM7b dataset
C -3.0566802573 -0.6520351392 -0.1337312557
C -1.6163904573 -0.5208292292 0.3235745743
O -0.7721698173 -1.1007678992 -0.6778786957
C 0.6156166827 -1.0698397792 -0.3210364157
C 1.2136264427 0.3035786108 -0.3937777857
N 1.7480708727 0.8368268308 0.6484807143
N 2.3708801627 2.0489252208 0.5137444643
H -3.7334230373 -0.2258690192 0.6202169343
H -3.3232621373 -1.7075404492 -0.2831752757
H -3.2143264773 -0.1190397192 -1.0817650857
H -1.4588956373 -1.0458950192 1.2870056743
H -1.3507066073 0.5410990508 0.4840357843
H 1.1054471427 -1.7366171192 -1.0490053857
H 0.7790556727 -1.4766233892 0.6940894343
H 1.1765404327 0.8285087708 -1.3668028457
H 2.3796341127 2.5487156208 1.3999573443
H 2.0476033627 2.6338933308 -0.2672779657
