15
Molecule 2755 / 7211 from QM7b dataset
C -2.4055552467 -0.0923649612 0.3535966103
C -0.9716981267 0.0698012588 -0.0046462297
C -0.2319046567 1.1624285388 -0.2869192797
C 1.1811377233 0.7559713588 -0.5071995397
C 1.8497343933 0.0647617388 0.6808793603
C 1.1084601333 -0.7559759212 -0.3344940697
O -0.2482033267 -1.1141675712 -0.0641919397
H -2.8961508067 -0.8018566812 -0.3299082297
H -2.9234248967 0.8724687388 0.2948583803
H -2.5167239667 -0.4900760112 1.3736144403
H -0.6098036567 2.1801869488 -0.3320554297
H 1.7966734033 1.2387677688 -1.2682008397
H 2.9356917033 -0.0320805812 0.6613497203
H 1.4029410433 0.2094101188 1.6654039303
H 1.6153784733 -1.4912118112 -0.9588275697
