20
Molecule 4071 / 7211 from QM7b dataset
C -2.0600151544 0.0244660330 -0.1449162666
C -0.5425914144 0.0304206830 -0.3670060166
C -0.2358793644 0.0475297230 -1.8738473966
C 0.1650509856 1.2268281630 0.3506154434
C 1.2673048656 0.5829707330 1.2346480234
N 1.4811010456 -0.7914939270 0.7427558934
C 0.1417182456 -1.2024568370 0.3029213334
H -2.3027277844 0.0355366430 0.9287948634
H -2.5218515344 -0.8738659870 -0.5848601366
H -2.5370116344 0.9017625530 -0.6082978866
H 0.8479265656 -0.0054432170 -2.0639247266
H -0.6061306844 0.9723702830 -2.3429150166
H -0.7114733244 -0.8039744770 -2.3855003766
H -0.5459871544 1.8107345530 0.9543815134
H 0.6008765556 1.9157908730 -0.3892699866
H 2.2127822456 1.1432230730 1.2382263734
H 0.9226749656 0.5184287230 2.2807641334
H 2.0974745956 -0.7553906170 -0.0751614866
H 0.1971419256 -2.0761650970 -0.3630438566
H -0.4349310344 -1.5011008070 1.1970246134
