15
Molecule 924 / 7211 from QM7b dataset
C -2.7783170363 -0.5994556519 -1.1153560625
C -2.0723026963 -0.6972328919 0.0159595075
C -0.8458961463 0.1144107481 0.3137018875
N 0.2874782937 -0.7726482319 0.6295761775
C 1.5114891437 -0.0652320519 0.9910346875
C 2.0476244037 0.8279107581 -0.0588822425
N 2.4176140837 1.5048712681 -0.9349364625
H -3.6722649963 -1.2009221019 -1.2853323625
H -2.4880251163 0.0954054881 -1.9076697225
H -2.3731723163 -1.4060900519 0.7944230275
H -1.0258820963 0.7343252081 1.2111924175
H -0.6380826163 0.8080656181 -0.5248574425
H 0.4681373037 -1.3811126819 -0.1737051225
H 2.2913636837 -0.7966933319 1.2509686475
H 1.3266935037 0.5390551381 1.8937558875
