14
Molecule 5486 / 7211 from QM7b dataset
C -2.8807511693 -0.2665432576 0.1117173417
C -1.4629832493 -0.2308480476 0.5876612217
C -0.3892129693 -0.0251438076 -0.1907823983
C 0.9943230207 -0.0143683876 0.3159110617
C 2.1445323107 -0.3631710676 -0.5452995983
O 1.8817117007 1.0098887924 -0.2220683683
H -3.3491284393 -1.2398138676 0.3302697317
H -2.9506835493 -0.0872151476 -0.9699307683
H -3.4892421493 0.4938098024 0.6271714517
H -1.3042907793 -0.3898267976 1.6613616717
H -0.5112344093 0.1523430024 -1.2653843183
H 1.1098254607 -0.1721347976 1.3956957617
H 1.9625979307 -0.6427453676 -1.5894174583
H 3.0430146707 -0.7930797576 -0.0884648983
