13
Molecule 954 / 7211 from QM7b dataset
O -1.7152034294 -0.0853272462 -1.3845489463
C -0.2843548794 -0.0043201362 -1.1208020363
C 0.0532817406 1.2324422838 -0.3429027663
C 0.5411990506 1.1891326838 0.9068357137
O 0.8669186806 0.0334549038 1.5778278337
C 0.6785833206 -1.1372005462 0.8808100537
C 0.1973659506 -1.2098036662 -0.3702323563
H -2.1492678194 -0.1222729962 -0.5109675763
H 0.1411488106 0.0321707238 -2.1374161563
H -0.1591299094 2.2054692338 -0.7861763463
H 0.7491650806 2.0628406138 1.5233186537
H 0.9886022606 -1.9938399662 1.4780554137
H 0.0993084706 -2.1908925862 -0.8352967363
