14
Molecule 4832 / 7211 from QM7b dataset
O -1.5535279005 0.7818351796 0.1319479213
C -0.2091284405 0.4579535996 0.4962904513
C 0.3966722195 -0.3898379204 -0.6390174187
C -0.3066827005 -1.7059795404 -0.8020495587
C 0.2953352695 -2.8959594604 -0.7015833587
C 0.5904302095 1.6773234196 0.7264828913
N 1.2079836495 2.6459882796 0.9301855713
H -1.9554464005 1.2926961696 0.8563972313
H -0.1843395505 -0.1302156804 1.4334404013
H 1.4650891595 -0.5448299704 -0.4292240087
H 0.3190235795 0.2077604896 -1.5623220287
H -1.3775265305 -1.6545818004 -1.0193683187
H 1.3642077795 -2.9825771204 -0.4888262187
H -0.2584297205 -3.8258520704 -0.8377174687
