13
Molecule 345 / 7211 from QM7b dataset
O -1.9908638930 -0.4011292140 0.6150189251
C -0.5949264330 -0.2757004940 0.7513777251
C 0.1696688470 -0.9550334240 -0.3401629549
O -0.5352416430 -1.5973010640 -1.3566628549
C 0.1664196570 0.5894318160 -0.2671550849
C 1.3322200670 1.3080447760 0.1367142251
C 2.3349967770 1.8890758160 0.5067565651
H -2.4068002230 0.4371661160 0.8825018651
H -0.2095984730 -0.3040675340 1.7751209851
H 1.1105167170 -1.4506582840 -0.0950649249
H -1.4847400830 -1.4892122340 -1.1440842849
H -0.4685863930 1.0509950360 -1.0288139249
H 3.2177792570 2.4083081860 0.8183088651
