15
Molecule 1011 / 7211 from QM7b dataset
C -1.9166401075 -0.0605616482 0.1389967907
C -0.3951855675 0.0021172018 0.0424353607
C 0.3666492425 1.0842685318 0.8796068707
C 1.3553244925 -0.0405551182 1.2591231407
N 0.3327303125 -1.0405353182 0.8341614807
C 0.0342540125 0.0297457118 -1.3673923093
N 0.3973456525 0.0062182218 -2.4776537793
H -2.2032347075 -0.0943469282 1.1976362707
H -2.3010001575 -0.9613633182 -0.3587986293
H -2.3736734575 0.8180215818 -0.3373309793
H -0.2505132875 1.4145787918 1.7244858107
H 0.7573109325 1.9493564818 0.3343999307
H 2.2610487525 -0.0234583682 0.6295820207
H 1.6467201825 -0.1261324682 2.3155629807
H 0.6863975525 -1.8265241682 0.2822895607
