15
Molecule 1748 / 7211 from QM7b dataset
C -2.4723319218 -0.9581123237 0.2590719670
C -0.9765392318 -0.8268731337 0.3421232070
O -0.2161013818 -1.2254496637 -0.8200885830
C -0.2126117318 0.1630334663 -0.4557835430
C 1.1022752882 0.7074251963 0.0423633470
N 1.0919826582 2.0768870563 0.2643944570
N 2.1705852682 0.0151406663 0.2119000070
H -2.9536893418 -0.3675168737 1.0528075670
H -2.7728567218 -2.0074525837 0.3922776070
H -2.8433584018 -0.6131030637 -0.7150010830
H -0.5114558318 -1.1427510537 1.2852239570
H -0.7751248318 0.8145387463 -1.1377941230
H 0.2102030882 2.4980553863 0.5429096370
H 1.9021823582 2.4127765663 0.7814816570
H 1.9901808382 -0.9479831037 -0.1019076730
