14
Molecule 4589 / 7211 from QM7b dataset
O -0.1232942632 -2.2454643001 -0.9644324422
C -0.7703599732 -1.5571708101 0.1280005478
C -0.3032220632 -0.1437111501 0.1488289378
C -0.9818862032 1.0451381999 0.3713039178
C -0.0238270332 2.0995657099 0.3544828178
C 1.2140446268 1.5297133299 0.1114477878
N 1.0332471868 0.1679641599 0.0089883678
H -0.3216851432 -3.1929979001 -0.8726746022
H -0.5235347932 -2.0657106101 1.0809761578
H -1.8689057132 -1.5629233601 0.0190004378
H -2.0517732432 1.1387056099 0.5360284978
H -0.2176604232 3.1584587599 0.4967259578
H 2.1950672968 1.9770227599 -0.0087369922
H 1.7336196968 -0.5058016501 -0.2831625522
