14
Molecule 4748 / 7211 from QM7b dataset
C -1.7752700100 -1.8695552601 -0.1259612277
C -0.2750625000 -1.7040337901 0.1566161223
C 0.1759073700 -0.2790093701 0.0952883123
C 0.6874051500 0.5200049099 1.0752428923
O 0.9477245700 1.7650867199 0.5388485023
C 0.5652299000 1.6384317599 -0.7667147677
N 0.1044738300 0.4670499499 -1.0877470077
H -2.0583123900 -2.9313751401 -0.1178689477
H -2.0301763900 -1.4518684401 -1.1093980177
H -2.3786376900 -1.3475489101 0.6305821323
H 0.3016268700 -2.2831340901 -0.5832324777
H -0.0243183200 -2.1159917401 1.1459791523
H 0.9221314800 0.3887148499 2.1249081623
H 0.6853136100 2.5161305699 -1.3943569577
