15
Molecule 5856 / 7211 from QM7b dataset
C -1.9173604278 -0.3609609261 0.7062654765
C -0.3823912978 -0.2823158661 0.7895021065
C 0.3296556722 -1.5024395661 0.2493440265
C 1.1341366722 -1.1175975261 -0.7462800735
O 1.1151294622 0.2462719039 -0.9973392535
C 0.2186726722 0.8152055439 -0.0836762435
C -0.0020149778 2.1341000239 -0.0800046035
H -2.3747175378 0.5756192939 1.0550560165
H -2.2960838778 -1.1808376761 1.3333156165
H -2.2390143978 -0.5371159361 -0.3293054935
H -0.1010982678 -0.1051478661 1.8438129065
H 0.1955146022 -2.5190329661 0.6075101465
H 1.8021873922 -1.6804549161 -1.3935607435
H 0.5041990222 2.7913800239 -0.7845615635
H -0.6962125078 2.5694647139 0.6355430065
