17
Molecule 6508 / 7211 from QM7b dataset
C -0.5375377957 1.5588561060 1.6311239667
C -0.1239617157 0.9653021760 0.3154193267
C 0.7068341843 -0.2910813340 0.3067084267
C -0.1495980857 -1.5647661340 0.1922109267
N 0.7144040243 -2.7522065140 0.2777047567
N -0.5341659857 1.5901267860 -0.7356995033
O -0.1022192957 0.9464623060 -1.9356958033
H -1.1653079057 2.4445316460 1.4772516067
H 0.3493417443 1.8431934260 2.2190721667
H -1.0971616757 0.8235605460 2.2309739967
H 1.2996125343 -0.3535726040 1.2315624567
H 1.4037006343 -0.2538055640 -0.5451343533
H -0.7520212957 -1.5016748540 -0.7334870433
H -0.8557193157 -1.6057112340 1.0375285167
H 1.3094044343 -2.8015514140 -0.5544448533
H 0.1405078843 -3.5985409140 0.2637125767
H -0.4506884657 1.5565657260 -2.6082813033
