19
Molecule 5821 / 7211 from QM7b dataset
C -2.9675386655 -0.1189062575 -0.7276373213
C -1.4777231055 -0.2823588475 -0.7271999613
C -0.6570673955 0.1931265225 0.2201373487
C 0.8509361845 0.0777764025 0.2746537487
C 1.2750642945 -0.6090268675 1.5779347087
C 1.4664755245 -0.6329998875 -0.9351314613
O 1.4003050545 1.4244317225 0.3764856587
H -3.3114544755 0.3936115725 -1.6404674413
H -3.3125823155 0.4579615325 0.1415261187
H -3.4728849855 -1.0981218875 -0.7122936613
H -1.0569081255 -0.8425078075 -1.5695605213
H -1.0832260955 0.7518469825 1.0632290787
H 0.8507055845 -0.0806352775 2.4426129187
H 2.3706140045 -0.5948340075 1.6679609187
H 0.9281803945 -1.6508019875 1.5959357587
H 1.1972500145 -0.1270946075 -1.8742774313
H 1.1374080645 -1.6800685775 -1.0017978213
H 2.5605419445 -0.6181361875 -0.8411194313
H 1.0490345345 1.9276600825 -0.3801761313
