11
Molecule 1626 / 7211 from QM7b dataset
O -1.6243356076 -2.1535256054 0.5257527850
C -2.1182489276 -1.0836059154 0.2679215550
O -1.4339109776 0.0789538746 -0.0138997450
C -0.0520502676 0.0197608646 0.0015248150
C 0.6464483724 1.1349633946 -0.2830955850
C 2.0579937624 1.1756612846 -0.2925234850
C 3.2724971024 1.2576346746 -0.3123066450
H -3.1978717576 -0.8559523754 0.2138664350
H 0.3793242024 -0.9494097254 0.2484550750
H 0.1035361824 2.0547106946 -0.5188166450
H 4.3411438024 1.3207394346 -0.3274531150
