15
Molecule 4458 / 7211 from QM7b dataset
N -2.3922512259 -1.3317255885 -0.1715605399
C -0.9497061159 -1.0923783385 -0.0513386199
C -0.6099821259 0.3784342215 0.0756236201
C -1.5491792059 1.3401775715 0.1928446201
C 0.7984392941 0.7536655915 0.0754041401
N 1.7209477941 -0.1445286585 -0.0167903799
O 3.0010877441 0.4523151615 0.0181988601
H -2.5793451859 -2.3291440185 -0.0571581499
H -2.7073497559 -1.0888828885 -1.1145163299
H -0.3452407259 -1.5089061985 -0.8795124199
H -0.5889890959 -1.6032637985 0.8567996201
H -2.6066964259 1.0807860915 0.2221556301
H -1.2669272159 2.3903483915 0.2816412001
H 1.0604879841 1.8173564915 0.1656301001
H 3.5870514141 -0.3224299085 -0.0573766599
