21
Molecule 3669 / 7211 from QM7b dataset
C -1.7592175555 -1.0405615946 0.2801068963
C -0.2373220655 -0.9342869246 0.1803345963
N 0.2296497345 -1.7848466946 -0.9211715437
C 0.3123491845 0.5381685754 0.1363334363
C -0.1495353955 1.2902580354 -1.1176162237
C -0.1143576455 1.3114798354 1.3984432363
N 1.7884799345 0.4016185154 0.0489204963
H -2.1566482255 -0.5349795046 1.1693496863
H -2.0433725355 -2.1001158546 0.3340513863
H -2.2509550655 -0.6092751346 -0.6066270837
H 0.1848047145 -1.3661546146 1.1105896263
H 1.2026974845 -1.5274790846 -1.1198653337
H -0.3047758255 -1.5706041946 -1.7683007637
H 0.1574490545 0.7606833354 -2.0305504437
H 0.2979534645 2.2960857654 -1.1473237837
H -1.2405850055 1.4177810354 -1.1313625337
H 0.1597350945 0.7544556754 2.3090213663
H -1.1976695555 1.4997894954 1.4308950563
H 0.3926376745 2.2878299154 1.4368566663
H 2.1505763345 0.0602826854 0.9452699663
H 2.2097455745 1.3239501754 -0.0918581337
