15
Molecule 4289 / 7211 from QM7b dataset
C -1.7994838246 -2.0542341014 0.0726329469
C -0.3937202846 -1.4706950714 0.0278209469
C -0.3627756346 0.0375907786 0.0079424869
O -1.3576552946 0.7476471286 0.0229003169
C 1.0487415454 0.7012857386 -0.0367659831
C 1.0733582054 2.2053116086 -0.0375325431
O 2.0479384554 -0.0011545014 -0.0698765531
H -1.7619734846 -3.1512099814 0.0906554069
H -2.3856091946 -1.7425294014 -0.8023110431
H -2.3417230846 -1.7119577814 0.9643307469
H 0.1768572654 -1.8217507114 -0.8494356031
H 0.2222969154 -1.7994626614 0.8827630269
H 0.5151566554 2.5885843186 -0.9040913131
H 2.1084726054 2.5596804986 -0.0583822031
H 0.5475369954 2.5911509886 0.8476937469
