12
Molecule 6544 / 7211 from QM7b dataset
N -2.0787750280 -0.3817768094 -0.2934469415
C -0.6845151880 -0.3893761994 -0.0909686915
C 0.1368398720 0.6951204906 0.0766085885
O -0.1577158380 2.0085848606 0.2626407685
O 1.4601165620 0.3098480906 0.1502432685
C 1.4627062120 -1.0570352794 0.0189026985
C 0.1904729920 -1.5307927894 -0.1292325915
H -2.4880854980 0.5116169606 -0.0189378215
H -2.5454714280 -1.1284029494 0.2214643285
H 0.1941591920 2.5341864406 -0.4818417815
H 2.4369448820 -1.5308124994 0.0431234385
H -0.0983510680 -2.5691112294 -0.2646118915
