16
Molecule 2843 / 7211 from QM7b dataset
C -0.2962447337 1.5823868894 -1.5300736103
O -1.3405056737 0.6650925694 -1.1496907303
C 0.0064882163 0.1602074294 -1.2924708603
C 0.6978218363 -0.3307348806 -0.0492502603
C 0.4762921263 0.3933923194 1.3029225897
N 0.1863570863 -0.9105245706 1.9949844897
C 0.1380272863 -1.5966743006 0.6588161797
H -0.3574530837 1.9624635894 -2.5553194303
H -0.0273020637 2.3206289194 -0.7661039503
H 0.1369774663 -0.4766589206 -2.1784706803
H 1.7714107563 -0.4468549906 -0.2725212803
H -0.4201394437 1.0329195194 1.3064987197
H 1.3280121563 0.9616247794 1.7039491697
H 1.0223828063 -1.2162547806 2.4998936897
H 0.7347580163 -2.5167563406 0.5769466597
H -0.9034092137 -1.8196450806 0.3780972897
