17
Molecule 5187 / 7211 from QM7b dataset
C -1.5579706850 -0.9933217860 0.8287590287
C -0.1385046250 -0.5661387960 0.4144297587
C 0.3498362250 -1.3693851260 -0.8002779013
O 1.7013903050 -1.1023161060 -1.1535798813
C -0.0375923650 0.9406217040 0.1688288387
C -0.5451027950 1.8686746540 1.2528617887
O 0.4473829950 1.3926082840 -0.8653936113
H -1.8818710350 -0.5139206260 1.7616011687
H -1.5902926950 -2.0806371960 0.9866252587
H -2.2901091650 -0.7473130260 0.0450166987
H 0.5484448450 -0.7725132760 1.2580286387
H -0.3319728450 -1.1820029360 -1.6528145713
H 0.2955284050 -2.4431193260 -0.5636714313
H 1.7037525150 -0.1624313260 -1.4256918613
H -1.6442874650 1.9177198640 1.2078565587
H -0.1440886150 2.8754496840 1.0919864187
H -0.2792848750 1.5037268440 2.2552419787
