14
Molecule 3856 / 7211 from QM7b dataset
C -1.9524881283 -0.8806054251 0.0759120940
C -0.4549267583 -1.0206608451 0.0828690240
C 0.1852134617 -2.2005446051 0.1751204740
N 0.2649042017 0.1811143749 -0.0152567560
O 1.6562126217 0.0796275249 -0.0125094160
C -0.1883606383 1.4659528349 -0.1154945060
O 0.6153637817 2.4056890849 -0.1932547160
H -2.3145108783 -0.2769038551 0.9213505440
H -2.3984956183 -1.8777798151 0.1579896340
H -2.3195636983 -0.4205091251 -0.8535287760
H -0.3986312083 -3.1150601351 0.2496731740
H 1.2694503417 -2.2676084851 0.1770590440
H 1.8822823417 1.0508567649 -0.0904966560
H -1.2840995383 1.5718193949 -0.1195791360
