20
Molecule 2986 / 7211 from QM7b dataset
C -2.9760539708 -0.1398120617 -0.7145644077
C -1.4802490508 -0.2393950317 -0.7498359777
C -0.6675387608 0.1607852883 0.2367958523
C 0.8470507392 0.0864427683 0.2750560923
C 1.2644372692 -0.8155288117 1.4540560423
C 1.4552092792 -0.4580746717 -1.0296047977
N 1.3170094492 1.4588926383 0.5971098223
H -3.4435343308 -1.1320057817 -0.8221815077
H -3.3538821308 0.4740908583 -1.5481982877
H -3.3296992408 0.3049171283 0.2260077323
H -1.0510922408 -0.6770316817 -1.6579161277
H -1.1035631308 0.6075557083 1.1390269523
H 0.8390573592 -0.4372224717 2.3936109723
H 2.3614674292 -0.8304601217 1.5562416923
H 0.9205019892 -1.8470548317 1.2979339323
H 1.1879580992 0.1776236883 -1.8868544377
H 1.1221725392 -1.4849126317 -1.2454996877
H 2.5525413092 -0.4739303317 -0.9489959577
H 1.0821963292 2.0834296083 -0.1800361577
H 2.3396768492 1.4562475183 0.6656753023
