15
Molecule 4423 / 7211 from QM7b dataset
C -2.1509984921 -1.7319258250 -0.2261917541
N -0.7538547221 -1.4754424450 0.0890180659
C -0.1655117721 -0.2339336450 0.0445062059
C -1.0748326121 0.9579516650 0.1095524759
C 1.2003799779 -0.1084850650 -0.0109576441
C 1.8624641879 1.1350224150 0.0259663059
N 2.4364746679 2.1595990050 0.0505248159
H -2.3762327721 -2.7767678250 0.0193748359
H -2.3938910121 -1.5655547350 -1.2909039141
H -2.8097853121 -1.1008110950 0.3841018159
H -0.1230658121 -2.2591616550 -0.0579624741
H -1.6878402721 0.9340017550 1.0229596259
H -1.7610065321 0.9824878150 -0.7499967041
H -0.4882313721 1.8824127150 0.1092214459
H 1.8327057279 -0.9974801650 -0.0708483441
