15
Molecule 2714 / 7211 from QM7b dataset
N -3.3942152430 0.9169679562 -0.0341401253
N -2.3735926830 0.0176296362 -0.0236523953
C -1.1601568930 0.4834086562 0.0213860447
C -0.0324477130 -0.4015571838 -0.0397502953
C 1.2637481470 0.0128542662 0.0138075047
C 2.3992598870 -0.8741091138 -0.0446563253
C 3.6885111170 -0.4746895938 0.0061141747
H -4.2602704430 0.5033868362 0.3022560347
H -3.2005510330 1.8437528862 0.3650817847
H -0.9688813930 1.5698235262 0.1071302047
H -0.2627324330 -1.4675089838 -0.1336373253
H 1.4744110470 1.0852656362 0.1054844247
H 2.1782267170 -1.9435679338 -0.1374780553
H 3.9521462870 0.5815874662 0.0977017647
H 4.5088194670 -1.1903647638 -0.0433978053
