21
Molecule 6944 / 7211 from QM7b dataset
C -0.7857009846 -1.9998823951 -1.0711435784
C -1.2281387046 -1.1731545451 0.1380739916
C -0.6540975446 0.2558831349 0.2056386316
C -1.2870265646 1.0303607449 1.3708497116
C 0.8632410754 0.2694295449 0.3169408616
C 1.7509025754 0.2858081549 -0.9067841184
C 1.6415908054 1.5163768649 -0.0360065184
H -1.2726029246 -2.9858530851 -1.0711046184
H 0.3009154754 -2.1624708051 -1.0767074684
H -1.0523252646 -1.4987452351 -2.0149609984
H -0.9549273146 -1.7038749651 1.0681666216
H -2.3292940946 -1.1020626851 0.1453792016
H -0.9217189346 0.7733299749 -0.7364844884
H -1.0539609346 0.5465207949 2.3330376916
H -2.3823871146 1.0704012749 1.2747079916
H -0.9088468746 2.0616184449 1.4165079816
H 1.2497816054 -0.2958091851 1.1725896016
H 1.2642278254 0.3156277149 -1.8832069784
H 2.6808260754 -0.2839167351 -0.8840489784
H 2.4963159654 1.7916597049 0.5825767216
H 1.0793725654 2.3646457649 -0.4318661684
