13
Molecule 6492 / 7211 from QM7b dataset
C -2.0587391289 -1.0899600171 -0.2449294563
C -0.5332534389 -1.0303272771 -0.1944080763
C -0.0051647589 0.4159159929 -0.1687806363
O -0.4550059589 1.1700715229 0.9596834837
C 1.4686187911 0.4311853929 -0.2586036063
N 2.6348224111 0.4203442629 -0.2909822763
H -2.4050145689 -2.1317804871 -0.2217410463
H -2.4436315489 -0.6292685971 -1.1670054563
H -2.5050451389 -0.5607663571 0.6073365437
H -0.0934917089 -1.5384311471 -1.0673121763
H -0.1489455789 -1.5559018471 0.6958356737
H -0.3959656589 0.9609221329 -1.0446170663
H -0.0403837889 0.7913597329 1.7572422437
