18
Molecule 710 / 7211 from QM7b dataset
C -1.7305148626 -0.4676527837 -0.0548245286
C -0.1928975526 -0.5373501137 0.0583233814
C 0.1916094874 -1.2170058037 1.3798980414
C 0.3878730774 -1.3443285837 -1.1221172386
C 0.3994185874 0.8979139763 0.0549303214
N 0.1429143374 1.6447501163 -1.0679574586
O 1.0575448174 1.3557520263 0.9865651714
H -2.0644020926 -0.0397769237 -1.0117382886
H -2.1596055026 0.1398335263 0.7550599014
H -2.1550620626 -1.4802187737 0.0192345614
H -0.1994478026 -0.6590931037 2.2406694314
H 1.2820126874 -1.2724634937 1.4941986914
H -0.2184471326 -2.2373585737 1.4045022414
H 0.0941584774 -0.9332985337 -2.0993708286
H 0.0235331674 -2.3817968537 -1.0781736786
H 1.4864374974 -1.3688165437 -1.0820907686
H -0.3961901226 1.2958421263 -1.8505175486
H 0.5133215674 2.5884199763 -1.1058527386
