16
Molecule 3517 / 7211 from QM7b dataset
C -1.0255397809 -0.8839075869 -2.4528529931
C -1.1711854409 -0.9348213669 -1.2484082831
C -1.3634826609 -0.9900398669 0.1972563369
C -0.6978477209 0.1664954231 0.9742135369
C 0.8123306391 0.1451879631 0.9150590669
C 1.5756121591 0.8766483031 -0.1310822731
N 1.4905276991 1.4184495731 1.2450770369
H -0.8981483009 -0.8410944169 -3.5150816931
H -0.9821145409 -1.9556583869 0.5730104369
H -2.4453674309 -0.9886010369 0.4092642969
H -1.0178582409 0.1010169731 2.0271137769
H -1.0564072209 1.1334096531 0.5907483569
H 1.2742071591 -0.7778242769 1.2868646469
H 1.0295261791 1.4519825231 -0.8818198631
H 2.5190716391 0.4456831231 -0.4749215131
H 2.3640736991 1.2245616231 1.7441699469
