19
Molecule 7198 / 7211 from QM7b dataset
C -0.8426757287 -1.9201514362 -1.8218210735
C -0.7621219287 -1.4039891762 -0.3831491035
C 0.1715103813 -0.2203363462 -0.2262959435
O -0.2965849887 0.9804870938 -0.9294954735
C -0.0379066187 1.7916583038 0.2515355565
C 0.2089388513 0.5423602738 1.1204789765
C 1.4713075813 0.4750948638 1.9638619165
H -1.5491538387 -2.7581205562 -1.9028745835
H 0.1387381513 -2.2726650762 -2.1737659635
H -1.1791695787 -1.1248918062 -2.5015212735
H -0.4057644287 -2.2044736662 0.2891880865
H -1.7634828187 -1.1079304662 -0.0288061435
H 1.1885785913 -0.4858161662 -0.5815537035
H 0.8600493113 2.4232886538 0.1186122665
H -0.8984209487 2.4299756738 0.5064517865
H -0.6769522087 0.2960826138 1.7270318165
H 2.3600519113 0.7237877538 1.3641418165
H 1.6179122613 -0.5312757062 2.3840756765
H 1.4259782813 1.1803231038 2.8073220365
