16
Molecule 2379 / 7211 from QM7b dataset
N -0.9249457838 0.3911675620 1.9843276175
C 0.1588734662 0.0987936820 1.0410022375
C -0.0248563338 -1.2960259280 0.3890430975
C 0.6772196762 -1.2330628080 -0.9827990825
C 0.6127554762 0.2345496120 -1.3607714625
O -0.6974806238 0.8294282020 -1.1718813925
C 0.3207890462 1.0294372420 -0.1582380225
H -1.7982623738 0.4959501620 1.4579029975
H -0.7576400038 1.2874855620 2.4487837675
H 1.1077440962 0.1262074320 1.6079156275
H -1.1012194138 -1.4700304580 0.2500843075
H 0.3557187062 -2.0984363280 1.0332695675
H 1.7381862762 -1.5253500780 -0.9094452725
H 0.2071036162 -1.8851758880 -1.7340197625
H 1.1793045062 0.6290272920 -2.2096132925
H 0.6548420862 2.0645729520 -0.0295407325
