17
Molecule 3764 / 7211 from QM7b dataset
N -3.2982525935 -0.6095566590 -0.9242667684
N -1.9310964135 -0.7579846290 -1.0114371184
C -1.2292528435 -0.5501310190 0.0448264716
C 0.2667007765 -0.5878578790 -0.0013410884
C 0.9083136165 0.7911865410 0.2855502716
C 2.4072211765 0.7494529710 0.2356786816
C 3.2224007765 1.0398175710 1.2561232116
H -3.7551875335 -1.1993953090 -1.6169649384
H -3.6915875135 -0.7562433890 0.0144020116
H -1.7106870135 -0.3109202990 1.0136179616
H 0.5738472965 -0.9488999690 -0.9944361884
H 0.6438815965 -1.3089864090 0.7446373316
H 0.5787167865 1.1617623510 1.2702718816
H 0.5323455265 1.5045167010 -0.4682572984
H 2.8449821265 0.4425753610 -0.7221396684
H 2.8294175865 1.3484525910 2.2287306416
H 4.3074131765 0.9851182810 1.1550401816
