18
Molecule 644 / 7211 from QM7b dataset
C -2.1119808501 -0.0235165800 0.8993742324
C -0.5946557301 -0.0245007100 0.7708174124
C 0.0563711699 1.0248094600 -0.1972700176
C -0.2558180601 0.0251443100 -1.3551857776
C 0.0785973399 -1.0059075100 -0.2489353176
N 1.5381702099 -0.7728748500 -0.0805335376
C 1.5490526099 0.7346949400 0.0199253124
H -2.4499950401 0.8313190400 1.5050736224
H -2.4596451301 -0.9390076200 1.4022614824
H -2.6276685201 0.0362060800 -0.0688366476
H -0.1411115601 -0.0561598800 1.7784470124
H -0.2583669001 2.0763893700 -0.2224360776
H 0.4015356599 0.0334667400 -2.2353831776
H -1.3080505901 0.0227573100 -1.6569714376
H -0.1846098301 -2.0692581000 -0.3235320876
H 1.8361167699 -1.1685392800 0.8158848024
H 2.1882852199 1.1713825200 -0.7635391076
H 1.9069195799 1.0872243100 1.0004113124
