15
Molecule 2272 / 7211 from QM7b dataset
N -0.6493920200 0.3307711206 -2.3010108299
C -1.6716411000 0.4820590606 -1.5288706599
N -1.6164794600 0.2034659106 -0.1894082099
C -0.4533006900 -0.4349533194 0.4187587501
C 0.7297630800 0.5240216606 0.5609667801
C 1.8963024800 -0.0499396794 1.3134643801
O 1.9384914900 -1.1689550794 1.7958869101
H -0.8917048000 0.6006506106 -3.2582873899
H -2.6634632700 0.8529073706 -1.8402364799
H -2.4889393600 0.2050001006 0.3243760501
H -0.1449092200 -1.2955220494 -0.1954536499
H -0.7485133900 -0.8192002194 1.4038127801
H 0.4326822700 1.4598587606 1.0690220201
H 1.0806178300 0.8356807006 -0.4390024799
H 2.7706557600 0.6454798106 1.4156916401
