18
Molecule 302 / 7211 from QM7b dataset
C 0.1352483561 -2.1109236612 -1.0157005267
O -0.4989899439 -1.1008574712 -0.2281069067
C -0.1935158239 0.2180540088 -0.6625432267
C -1.1624839239 1.1601652188 0.0648210633
N -1.2173591039 0.9202446988 1.5114989033
O 1.1856461561 0.5318608788 -0.5642713467
C 1.7527623561 0.5184603988 0.7571452433
H -0.2039989539 -3.0764662612 -0.6212212467
H 1.2327059161 -2.0483615512 -0.9484259567
H -0.1604205439 -2.0261571912 -2.0774085367
H -0.3810114139 0.3013746788 -1.7514540567
H -2.1396453439 1.0509813888 -0.4485349067
H -0.8129870839 2.1883517588 -0.1178089667
H -1.5073379339 -0.0478243412 1.6715429933
H -1.9363331739 1.5150124188 1.9275129533
H 2.8368105061 0.6115445388 0.6124341633
H 1.5306374761 -0.4244379412 1.2808918533
H 1.3777787961 1.3517065588 1.3686700933
