18
Molecule 6860 / 7211 from QM7b dataset
C -2.7159527261 -0.8089160724 0.7651268564
C -1.2316366661 -0.9401153824 0.5302251264
C -0.6299800261 -0.9772831624 -0.8375763936
N -0.5214717661 0.2294537776 -0.0037216536
C 0.8112914739 0.4812233776 0.5617432264
C 1.6476514039 1.2991517476 -0.3794482136
C 2.8876110639 0.9810516876 -0.7660623636
H -2.9213692561 -0.3084542224 1.7234839964
H -3.1959375561 -1.7988317424 0.7887803264
H -3.1799143561 -0.2157795924 -0.0347168836
H -0.6874659161 -1.5214904524 1.2868943664
H -1.2696403861 -0.8836582524 -1.7189961036
H 0.2733850339 -1.5803657024 -0.9800026436
H 1.3467994639 -0.4570800524 0.8223357164
H 0.6587209739 1.0435183176 1.5006654864
H 1.1746058239 2.2133582776 -0.7529409936
H 3.3788561939 0.0694857876 -0.4140968036
H 3.4583552039 1.6224480176 -1.4394043236
