13
Molecule 368 / 7211 from QM7b dataset
C -2.6838175554 0.0007620995 0.8708215166
C -1.4743156454 0.0005467695 0.7720371166
C -0.0189179954 0.0002759795 0.6602556066
C 0.5706800646 1.1873193495 -0.0780862334
C 1.4076176746 0.7328193795 -1.0380940834
C 1.4074896646 -0.7341076505 -1.0374191334
C 0.5702714246 -1.1875500705 -0.0771369234
H -3.7512516554 0.0009537495 0.9537726466
H 0.4066825746 0.0006265395 1.6868616966
H 0.3367877946 2.2185536995 0.1749156266
H 1.9990348146 1.3501214995 -1.7138336134
H 1.9986439646 -1.3521495405 -1.7126993034
H 0.3360567146 -2.2185010905 0.1767157466
