17
Molecule 5351 / 7211 from QM7b dataset
C -1.9519355916 -0.1963390705 -0.4185679070
N -0.5570070016 -0.2695220605 0.0118183930
C -0.0819515816 -1.5368924805 0.3714101330
N 1.1035240684 -2.0252025305 0.4147366030
C 0.2422568084 0.8850612695 -0.1382183670
C 1.5030366484 0.9844317895 0.6911353630
C -0.1553876616 1.9228101095 -0.9076296870
H -2.4129417316 0.7246011995 -0.0351892770
H -2.4917971816 -1.0639425705 -0.0205566870
H -2.0450871716 -0.2093004205 -1.5173371370
H -0.9117928616 -2.1964047105 0.6644998030
H 1.8087062984 -1.3630581705 0.0722051830
H 1.4029595784 0.4639257695 1.6520596330
H 1.7117948284 2.0436195195 0.8862004730
H 2.3846121984 0.5748940695 0.1761504230
H -1.0475930416 1.9001909795 -1.5290735670
H 0.4394078884 2.8341167695 -0.9236210270
