17
Molecule 3410 / 7211 from QM7b dataset
C -2.1803253283 -1.8761859164 -0.5787189390
C -2.2221676383 -0.5917309564 -0.1879091790
O -1.1915182183 0.2870153136 -0.0487781090
C 0.1199080217 -0.2167914064 -0.3732840190
C 1.1225919617 0.8822323636 -0.1793608190
C 1.6666543017 1.1669641236 1.1997869710
C 2.5474015417 0.5093228536 0.1654828410
H -3.1141940083 -2.4321135664 -0.6302641590
H -1.2647305983 -2.3984237864 -0.8485167990
H -3.1617033883 -0.1000794064 0.0753379510
H 0.1152629117 -0.5749405764 -1.4189415290
H 0.3514896717 -1.0766580664 0.2829412210
H 0.9901871117 1.7415868536 -0.8405104490
H 1.2969748817 0.5515423436 2.0213224010
H 1.8662139717 2.2051747136 1.4644093010
H 3.3492531817 1.0943869536 -0.2844655290
H 2.7790148517 -0.5494643364 0.2929313310
