17
Molecule 3783 / 7211 from QM7b dataset
C -2.5867837835 0.0287431822 -0.3236484485
C -1.0687013935 0.0312763522 -0.3704700985
C -0.2971363035 1.0465841622 0.5158703315
C 0.7380491365 -0.0728573978 0.8828546015
C -0.2992259535 -1.1158798478 0.3391757715
C 2.0029811065 -0.0072343778 0.0642205115
O 2.0403557565 0.0925565022 -1.1515883085
H -3.0020435935 -0.8148893078 -0.8960037785
H -3.0006408635 0.9547678922 -0.7513626485
H -2.9509500635 -0.0557036278 0.7127265915
H -0.7128871635 0.1157093522 -1.4080502885
H -0.8748187335 1.3415562422 1.4044096115
H 0.1046879765 1.9442572922 0.0270985815
H 0.9966007465 -0.1601589278 1.9474053615
H 0.1008847965 -1.9232012878 -0.2888041785
H -0.8776267835 -1.5499924878 1.1681700215
H 2.9588507765 -0.0565895978 0.6491011815
