11
Molecule 105 / 7211 from QM7b dataset
C -1.5002580268 -0.6791525315 -0.1206681825
C -0.1360955868 -0.6248450115 -0.7505476425
O 0.2342301332 -1.3683271615 -1.6385693725
C 0.8475410832 0.4767617185 -0.2592382425
C 0.5693584532 1.0453998285 1.0499050175
N 0.3238862232 1.4783645385 2.1052699275
H -1.9856100268 0.3074959285 -0.1680626425
H -1.4057010168 -0.9198865015 0.9490592275
H -2.1132071868 -1.4332008415 -0.6241921125
H 0.8180632232 1.2795113385 -1.0146905025
H 1.8621348432 0.0551615785 -0.2871541825
