12
Molecule 192 / 7211 from QM7b dataset
N -2.6474933806 0.0011461841 0.8755995966
C -1.4845630206 0.0008514041 0.7825291666
C -0.0263456006 0.0004884041 0.6764391566
C 0.5415853194 1.1907627141 -0.0731111334
C 1.3533066994 0.7322857541 -1.0519959234
C 1.3530292394 -0.7343214959 -1.0509483234
C 0.5411216694 -1.1910806759 -0.0714000434
H 0.3804939094 0.0011557241 1.7081459266
H 0.3135800494 2.2214619741 0.1858588266
H 1.9286890194 1.3486027341 -1.7416290534
H 1.9281671594 -1.3518446259 -1.7396910934
H 0.3127176894 -2.2213157259 0.1890408166
