17
Molecule 6376 / 7211 from QM7b dataset
C -2.8048731722 -0.6709664583 0.2712543920
C -1.2842920022 -0.8278457583 0.2909262220
C -0.5565894922 0.5288271917 0.3738518120
C 0.9407967978 0.3879785217 0.3687554220
C 1.7206144578 0.4126680617 1.4675817120
C 1.6274176678 0.1948771917 -0.9325930980
O 1.0688032878 0.1779420317 -2.0199158380
H -3.3041659922 -1.6494449183 0.2303935220
H -3.1328184722 -0.0915483683 -0.6048683680
H -3.1657780622 -0.1489401783 1.1709746320
H -0.9519197322 -1.3571674483 -0.6155589680
H -0.9802953022 -1.4486326983 1.1498842520
H -0.8738511822 1.0621218017 1.2838843320
H -0.8535633622 1.1399559517 -0.4938824180
H 1.3122540578 0.5649862517 2.4682797320
H 2.8026140078 0.2814344217 1.3847766220
H 2.7386521978 0.0704664317 -0.8532154080
