15
Molecule 1543 / 7211 from QM7b dataset
C -1.6548355583 0.1141195561 0.6950699005
N -0.3457144683 -0.1791265739 0.1325659205
C 0.0658579117 -1.4829590639 -0.0215463795
O -0.6757594983 -2.4611345539 0.0097261105
N 0.6440497917 0.8304263261 0.4198582505
C 1.6302335517 0.9986642261 -0.6763709695
C 0.5361142017 1.9867771361 -0.5114003395
H -2.1209316383 0.9576251861 0.1670115105
H -1.5635767783 0.3630538961 1.7638340705
H -2.2672224383 -0.7859310939 0.5747588105
H 1.1583218317 -1.5514895539 -0.2125534595
H 1.5537832917 0.3251263261 -1.5315849095
H 2.6415595117 1.2159821461 -0.3312216895
H 0.7181367517 2.9522707161 -0.0389252695
H -0.2665624483 1.9537294161 -1.2506104195
