13
Molecule 62 / 7211 from QM7b dataset
C -1.5799477253 -0.8847186378 -0.2630246248
N -0.1377537253 -0.8156143178 -0.0737125948
C 0.5939180847 -2.0753619478 -0.0708871148
C 0.5600410947 0.3477518022 0.0954356652
O 1.7754525847 0.4438256222 0.2547604352
C -0.2588325353 1.5759067522 0.0793218252
N -0.8002834153 2.6103228922 0.0830185452
H -2.0120279953 0.1216295822 -0.2515501748
H -2.0412319953 -1.4769543478 0.5419657852
H -1.8142240353 -1.3587594878 -1.2285873448
H 0.2226864047 -2.7264193778 0.7351449452
H 1.6556086247 -1.8616038578 0.0878897652
H 0.4607547947 -2.5929253178 -1.0331626148
