13
Molecule 1584 / 7211 from QM7b dataset
O -1.0092733530 -1.9799839946 -1.6154334228
C -0.7890674430 -1.4020575546 -0.5696735528
C 0.2384261770 -0.3025618346 -0.3925441928
C 0.8694638370 -0.2468153546 1.0114121972
N 0.9944017670 1.2124964254 1.2363940172
N 0.0229513770 1.8683606854 0.5023589872
C -0.4114469230 1.0818816054 -0.4233003628
H -1.3820587330 -1.6290830246 0.3563811072
H 0.9802398970 -0.3875899346 -1.2050201528
H 1.8469271670 -0.7406563646 1.0728744572
H 0.1825346770 -0.7096125646 1.7480344972
H 0.9896927970 1.5271774754 2.2064430072
H -1.1088748730 1.4309554254 -1.1818810928
