13
Molecule 4179 / 7211 from QM7b dataset
C -2.3963474278 -0.0036467334 0.0489470406
C -0.8949401978 0.0261985266 0.0166657406
C -0.1531988478 1.2014249766 -0.0456855294
C 1.2410542822 1.0951027666 -0.0693032894
N 1.9077441122 -0.0680923234 -0.0354395194
N 1.2044186722 -1.2098071934 0.0245439106
C -0.1332491178 -1.1571392334 0.0490004206
H -2.8189095378 1.0081200466 0.0011082506
H -2.7594474478 -0.4833760734 0.9697664606
H -2.7960203878 -0.5828853634 -0.7962651094
H -0.6381825578 2.1799444066 -0.0758441694
H 1.8735213322 1.9855809466 -0.1180625994
H -0.6260130378 -2.1337291634 0.0978201306
