16
Molecule 3603 / 7211 from QM7b dataset
C -2.2242950537 0.2524286022 -0.9206463692
N -0.7862723337 0.2227219422 -0.7203636592
C -0.2731973237 1.3369772722 0.0926503208
C 1.1684413463 0.9226961822 0.3869826208
C 1.0845607163 -0.6033686378 0.4522464208
O 1.9346948263 -1.3649152878 0.8687808808
C -0.2937663937 -0.9946660178 -0.0821433092
H -2.5287328537 -0.5731834778 -1.5795291892
H -2.5106401637 1.1968450722 -1.4060239192
H -2.7927031537 0.1640341022 0.0327545208
H -0.8404793537 1.4469679622 1.0461950408
H -0.3621121737 2.2817875622 -0.4627135592
H 1.8397198263 1.1832135322 -0.4471156692
H 1.5973077063 1.3334606522 1.3093241708
H -0.2385383937 -1.8485336578 -0.7727306292
H -0.9079334637 -1.3087274478 0.7975997008
