12
Molecule 476 / 7211 from QM7b dataset
N -3.1220435218 0.2722338164 -1.4845550346
C -2.2069985118 0.1080249264 -0.7763050146
C -1.1505940518 -0.1184807236 0.1606348954
N 0.0708502682 0.0674686464 -0.2004656446
N 0.9668142182 -0.2143722236 0.8822196454
C 2.2508087482 -0.7334833036 0.3074248054
C 2.1681749882 0.6719283564 0.7421477154
H -1.4248682518 -0.4487100236 1.1721138454
H 2.2439962582 -0.9306840236 -0.7651628446
H 2.7218959282 -1.4869231636 0.9388545854
H 2.5765401282 0.9845188964 1.7033049454
H 2.1047421482 1.4365511064 -0.0329177046
