17
Molecule 5637 / 7211 from QM7b dataset
C -1.7574353467 0.0467884451 1.5576589790
C -0.9811116467 0.0187716851 0.4682566890
C -0.4425523267 -1.2295571149 -0.2097300210
C 0.8749391933 -0.7851952949 -0.8318587610
C 1.8247717833 -0.0177021749 0.0594052090
C 0.8905869333 0.7358499551 -0.8599222310
C -0.4172101767 1.2298510851 -0.2550849010
H -2.0829122167 0.9899189051 2.0011722690
H -2.1017931567 -0.8725817349 2.0361693690
H -1.1338816767 -1.5492769049 -1.0104862710
H -0.3433352567 -2.0715425049 0.4924515490
H 1.2899111333 -1.3622375149 -1.6591906710
H 1.6233949933 0.0041540951 1.1335539890
H 2.8819982033 -0.0334755149 -0.2066223610
H 1.3170913533 1.2733309351 -1.7077725410
H -0.3003290267 2.0947996951 0.4156086490
H -1.1020748267 1.5340710251 -1.0672337610
