13
Molecule 4633 / 7211 from QM7b dataset
C -0.3984272013 -2.4964856201 0.4177782182
N -0.9110787713 -1.3131692501 -0.2632820518
C -0.2472887013 -0.1089229401 -0.1238705118
N -0.9109270713 1.0406382899 -0.2211279418
O 0.0806903787 2.0485580499 -0.1202775618
C 1.2788485687 1.4562949599 0.0542025282
C 1.1580388287 0.0993303699 0.0666443682
H -1.0619313213 -3.3413820101 0.1971276182
H -0.3256665813 -2.3807641401 1.5144607882
H 0.5963485887 -2.7538354901 0.0275496382
H -1.9216506813 -1.1965527201 -0.2120009518
H 2.1284210587 2.1260071399 0.1538209482
H 1.9459678387 -0.6355210701 0.1836047882
