18
Molecule 6119 / 7211 from QM7b dataset
N -1.6663003655 0.1483515383 1.0613638512
C -0.2604267655 0.1807714383 1.3937900212
C 0.7071924245 -0.6938135017 0.6169292812
C 0.2196173045 -1.3331048017 -0.6848670788
C 0.3591781445 -0.2284291517 -1.7593277588
C 0.2372398745 1.1135819583 -0.9989388888
C 0.7181187945 0.8169069783 0.4229463412
H -2.1203733155 1.0176898083 1.3510489712
H -2.1325397255 -0.6122400617 1.5613390912
H 0.0107176945 0.3144911983 2.4504773312
H 1.4967308045 -1.1892930417 1.1845025012
H 0.8183341945 -2.2219628017 -0.9305110588
H -0.8301142555 -1.6520167617 -0.5958069888
H 1.3596568345 -0.2944948117 -2.2177488288
H -0.3797743955 -0.3270916517 -2.5692104088
H 0.8480244445 1.9030287183 -1.4599910888
H -0.8076964255 1.4595106583 -0.9952449388
H 1.5156180445 1.4284404583 0.8484069512
