18
Molecule 2712 / 7211 from QM7b dataset
C -2.3780324207 0.4748631335 -0.2478596085
C -0.8906761207 0.3129271335 -0.4685801685
O -0.0991714807 1.3524817735 0.1889296715
C 0.8386071893 0.3598278735 0.7241999315
C 2.2019016393 0.4271463635 0.0618539915
C -0.1133811007 -0.7926532865 0.2984376515
N 0.4672716293 -1.9512678765 -0.3538078385
H -2.9269842507 -0.3503943065 -0.7275155885
H -2.7377590307 1.4180009935 -0.6837662985
H -2.6127754707 0.4798106735 0.8264187715
H -0.6625342007 0.2881418335 -1.5547378885
H 0.9425663893 0.4880031235 1.8153935015
H 2.1292030693 0.3531304035 -1.0331610985
H 2.8451225593 -0.3869110965 0.4262885815
H 2.6827127293 1.3859813335 0.3008210515
H -0.6981156807 -1.1470650665 1.1611969115
H 0.8472422893 -1.7066542665 -1.2713028585
H -0.2367230807 -2.6756899865 -0.5027283685
