19
Molecule 5493 / 7211 from QM7b dataset
C -0.2901718860 -1.1322350508 -2.5598771808
C -0.8997045660 -0.8522854408 -1.1847803008
C 0.0079881940 -0.0329273008 -0.2660706708
C 0.2799611940 1.3829981992 -0.7654554608
O -0.6751619660 0.0173670792 1.0168605592
C 0.0749138540 0.2215365592 2.1344290992
C 1.4026444640 0.3846908392 2.2590825692
H -0.9476273260 -1.7880211308 -3.1471606508
H 0.6850880540 -1.6357079308 -2.4718037208
H -0.1411684260 -0.2114487008 -3.1417795608
H -1.1201390260 -1.8024428408 -0.6736022108
H -1.8602631960 -0.3215796608 -1.2922242808
H 0.9583465440 -0.5801733808 -0.1256435608
H -0.6692961160 1.9015512192 -0.9661683508
H 0.8694823140 1.3639852892 -1.6925393108
H 0.8397021140 1.9621172792 -0.0198231608
H -0.5794760160 0.2328450892 3.0099211292
H 2.0997676340 0.3960291192 1.4234358392
H 1.8130916540 0.5132421892 3.2585350392
