20
Molecule 7057 / 7211 from QM7b dataset
C -2.4918716560 -1.2513304453 0.0764234375
C -0.9589442760 -1.2036314253 0.0104283575
N -0.3820739660 -1.9230054653 -1.1419248725
C -0.4513733160 0.2462563447 0.0113729475
C 1.0729993340 0.3683735247 0.1696382475
C 1.5631350140 1.7784415647 0.0351370075
C 2.2276197640 2.4645780947 0.9729645375
H -2.8736261160 -0.7528135653 0.9811453875
H -2.8535524260 -2.2905199353 0.0853469375
H -2.9340853760 -0.7467541853 -0.7979887425
H -0.5586936260 -1.7013011753 0.9128699575
H -0.7984392660 -1.5590959553 -2.0061336925
H -0.6480735060 -2.9101700453 -1.0982774125
H -0.9508474560 0.8043478147 0.8199221575
H -0.7654672260 0.7290748447 -0.9332770725
H 1.5412374240 -0.2678884053 -0.6006671325
H 1.3775474840 -0.0396489453 1.1483955075
H 1.3420574940 2.2719459047 -0.9200368225
H 2.4697619640 2.0165286647 1.9406409475
H 2.5573092140 3.4912072947 0.8057468775
