16
Molecule 4867 / 7211 from QM7b dataset
N -3.2014161273 -1.1626749744 0.3935131748
C -1.7319641473 -1.1870381144 0.3673579148
C -1.1785254373 0.2430838556 0.2525922448
C 0.3111623427 0.2999161956 0.3623879548
C 1.1347422327 0.7665509456 -0.6001868552
C 2.5471115227 0.8218950156 -0.4962296852
C 3.7623806527 0.8874287256 -0.4470447252
H -3.5616378673 -2.1088349944 0.5361169548
H -3.5592094973 -0.8591290544 -0.5165663552
H -1.2976176173 -1.8020246344 -0.4461608752
H -1.3873842873 -1.6283433644 1.3169349448
H -1.6388935173 0.8387492856 1.0603499548
H -1.5027713773 0.6911458556 -0.7019987452
H 0.7544898827 -0.0718962844 1.2926482848
H 0.7036377827 1.1404710456 -1.5363697552
H 4.8298563927 0.9475672256 -0.3928077252
