19
Molecule 1616 / 7211 from QM7b dataset
C -2.4373370586 -1.2876061962 -0.4926746601
C -0.9129285186 -1.2480727462 -0.3869117101
C -0.3570134886 0.1796193938 -0.2959080701
O -0.8730246986 0.8833052838 0.8418125799
C 1.1833533614 0.2078321138 -0.2796949201
C 1.7486075414 1.6142033238 -0.4340491501
O 1.5636962314 -0.3805862662 0.9864305799
H -2.8075570586 -2.3222209962 -0.5162922401
H -2.7855232586 -0.7864775362 -1.4094689301
H -2.8995739386 -0.7759622362 0.3625071099
H -0.4598614886 -1.7410394162 -1.2645607801
H -0.5731765686 -1.8124276862 0.4970342499
H -0.6975414286 0.7536985138 -1.1759197701
H -0.3684637486 0.5336673638 1.6033156399
H 1.5506791114 -0.4341854262 -1.1041449901
H 1.3382140114 2.2802414538 0.3372474399
H 1.4915384314 2.0257061038 -1.4212740901
H 2.8471203514 1.6084998738 -0.3570038201
H 2.4906823014 -0.1471074862 1.1580459699
