16
Molecule 2034 / 7211 from QM7b dataset
C -1.7050803183 -0.0091290245 -0.0050931095
C -0.2234176583 0.0088030755 -0.3651820295
N -0.0714528883 -0.0389457245 -1.8111163895
C 0.5792996717 1.0451542555 0.4995434705
N 0.8762126317 -0.0476731545 1.4626965505
C 0.5945085417 -1.0629527845 0.4115946105
H -1.8316975683 -0.0319982045 1.0853554605
H -2.1932914383 -0.8916492245 -0.4426408695
H -2.2097693883 0.8921352455 -0.3897116495
H 0.9012889117 0.1298277455 -2.0786290295
H -0.6363906483 0.6885959455 -2.2571984195
H 0.0318217917 1.9019523455 0.9274808205
H 1.4609166217 1.4172851255 -0.0586772995
H 1.8326752917 -0.0568232945 1.8217969305
H 1.4804493717 -1.3738933645 -0.1743881095
H 0.0588174317 -1.9603532945 0.7603733905
