16
Molecule 5523 / 7211 from QM7b dataset
C -0.5281531733 0.1348928640 -0.6629298153
C -0.9112935133 0.7836496340 0.6499680947
C -2.1025452233 0.3417485240 1.4227754247
N -0.7434891933 -0.0487103260 1.8637042747
C 0.9539172667 0.2369101640 -0.9427927753
C 1.8936073267 -0.8251389460 -0.5506354853
O 1.4945679467 -0.6672879460 -1.9295486853
H -0.8167281033 -0.9269763660 -0.6431021653
H -1.0854482333 0.6144359640 -1.4857767953
H -0.6561232533 1.8465116440 0.7366856247
H -2.7095536633 -0.4844311060 1.0439168947
H -2.6522873233 1.0918262040 1.9968884547
H -0.4579359833 0.5392933040 2.6529519047
H 1.3521613967 1.2582808140 -1.0221220753
H 1.5013774867 -1.7149808860 -0.0478978853
H 2.9392223567 -0.5770571660 -0.3393970553
