19
Molecule 5058 / 7211 from QM7b dataset
C -2.9606211275 -1.2639035050 0.0920030882
N -1.5033634175 -1.2664784850 0.1672250982
C -0.9439549575 0.0788472650 0.2494220682
C 0.5751453425 0.0365817050 0.1859864382
O 0.9596421325 -0.5009100750 -1.0824195318
C 1.2107632825 1.4206058250 0.3647445982
N 2.6478600025 1.3154209050 0.0536379282
H -3.3246534075 -2.2916643950 -0.0449407118
H -3.3739013875 -0.6353824350 -0.7263803018
H -3.3776955775 -0.8880037550 1.0401494882
H -1.1153778775 -1.7142282450 -0.6671636118
H -1.2528604475 0.5287750250 1.2101536382
H -1.3091648675 0.7502714850 -0.5619261418
H 0.9345245825 -0.6329865550 0.9968363182
H 1.8799959225 -0.1754043550 -1.2017195318
H 0.9928019525 1.8061011450 1.3784423682
H 0.7607083925 2.1112965050 -0.3657787618
H 3.1625679225 0.9408730150 0.8544218082
H 3.0464464025 2.2322484850 -0.1517166518
