15
Molecule 7065 / 7211 from QM7b dataset
C -1.9766950950 -1.8393375478 -0.4437870892
C -0.6821103950 -1.6608940978 -0.1204078592
C -0.0030314650 -0.3804058878 0.0117295908
C 1.3126306250 -0.2071048778 0.3404709508
C 1.6375363650 1.2548935222 0.3755767608
C 0.3311163250 1.9080599122 0.0236830108
C -0.6041327550 0.9529461922 -0.1834494692
H -2.4051301450 -2.8384448478 -0.5215509992
H -2.6452357650 -0.9994616178 -0.6407581392
H -0.0594288050 -2.5423381078 0.0659667408
H 2.0296194750 -1.0004048978 0.5478582508
H 2.4382383050 1.5204500022 -0.3396041692
H 2.0090554550 1.5765298422 1.3661669408
H 0.1855713550 2.9846237622 -0.0475784592
H -1.6445715050 1.1301025722 -0.4533955392
