18
Molecule 2976 / 7211 from QM7b dataset
C -2.8946043723 -0.4276069925 -0.9415254648
N -1.4714463723 -0.1294715425 -1.0917889848
C -0.8456287923 0.2959718275 0.1585484952
C 0.6352632677 0.5833187375 -0.0372082248
C 1.4534977077 0.7688201675 1.2584721352
O 2.1802211677 -0.4737572025 1.0380068152
C 1.5338311377 -0.6508294325 -0.2602809548
H -3.3260595723 -0.6706816725 -1.9222188848
H -3.4873889423 0.3981011975 -0.4935396348
H -3.0159380723 -1.3116653125 -0.2964046348
H -1.3548725823 0.6096182875 -1.7903417848
H -0.9585391223 -0.5259230125 0.8886234952
H -1.3383223723 1.1874666475 0.6117746752
H 0.7750693377 1.3864616375 -0.7775853448
H 0.8753242877 0.7453490575 2.1987804552
H 2.1313317877 1.6397281575 1.2697736152
H 2.2610361377 -0.5668481325 -1.0852417748
H 1.0025606877 -1.6132942825 -0.3331877248
