14
Molecule 2980 / 7211 from QM7b dataset
C -2.4046967355 -1.2480510669 1.9016277480
C -1.4067464655 -0.7790433369 0.8833924080
C -0.3676560355 0.0068645931 1.2038500780
O 0.6141888445 0.5054975931 0.3798331780
C 0.4991790245 0.1303894931 -0.9904814320
C 1.6024595045 0.7294041431 -1.7398519920
N 2.4629492645 1.1845238431 -2.3797424320
H -2.4304709455 -2.3475578869 1.9607365180
H -3.4238752055 -0.9185688069 1.6454514580
H -2.1691170755 -0.8632994069 2.9035988080
H -1.5626905755 -1.1097159069 -0.1460964220
H -0.1869166155 0.3521255531 2.2239980380
H -0.4584583155 0.4825936131 -1.4162178220
H 0.5421373745 -0.9686077569 -1.1031598420
