19
Molecule 4025 / 7211 from QM7b dataset
C -2.6492699014 1.5717783027 -0.4454974099
C -1.4906434214 0.9358615427 0.2991194201
O -0.9556598414 -0.1226402373 -0.5079657899
C 0.1255679786 -0.7679878873 0.1150808501
C 1.1122799086 -1.4418743173 -0.7889120499
C 1.5222059986 -0.2001747973 -0.0109514299
C 2.5102388786 -0.2927824673 1.1285951901
H -3.0810868314 2.3871820827 0.1516038001
H -3.4370749914 0.8322447227 -0.6447090999
H -2.3131494114 1.9859556427 -1.4062212999
H -1.8276128414 0.5260475927 1.2721625101
H -0.6990175814 1.6804891327 0.5100511301
H -0.1291876814 -1.2652543773 1.0621719001
H 0.9413055586 -1.3311373973 -1.8599006299
H 1.5154845886 -2.4075328573 -0.4789519299
H 1.5788486986 0.7080084327 -0.6178636399
H 2.3472840386 -1.2070992373 1.7192303201
H 2.4201417786 0.5654258427 1.8121913201
H 3.5470667586 -0.3221299373 0.7593545101
