16
Molecule 5088 / 7211 from QM7b dataset
C -0.9934844904 -0.0720637634 1.0907059572
C -0.6369530504 0.9896460266 0.0187112272
C 0.8754985396 1.2514881066 -0.0351458228
C 1.6207337196 -0.0631460234 -0.0448213428
C 0.9149051196 -1.2026626834 -0.0441613328
C -0.5933661004 -1.0708820734 -0.0304014828
N -0.9563518204 -0.0179623934 -1.0776530228
H -0.4339376604 -0.0959429634 2.0389457272
H -2.0760125404 -0.0865282134 1.2849963572
H -1.2176896104 1.9230164266 -0.0173518228
H 1.1167676496 1.8322667966 -0.9418951428
H 1.1872182096 1.8683127066 0.8265749472
H 2.7132671296 -0.0566346534 -0.0596544328
H 1.3843862296 -2.1879459434 -0.0477452628
H -1.1208994504 -2.0296809434 -0.1205082428
H -1.9826396404 -0.0354039934 -1.1491141828
