18
Molecule 6085 / 7211 from QM7b dataset
C -2.1625407857 -0.1751626161 -0.0510920981
C -0.6573464757 -0.0953080861 -0.0162531981
C 0.2734890443 -0.7056007961 -1.1165235981
C 1.3475013843 -0.4976091861 -0.0089398881
C 0.2241805743 -0.8725542861 1.0041380819
C 1.3496252843 1.0330610439 0.1264402919
N -0.1317141257 1.2904743139 0.1754243019
H -2.5893534157 0.2508192939 0.8684462319
H -2.4988932757 -1.2168930261 -0.1463888481
H -2.5686078457 0.3892757839 -0.9056116081
H 0.3825796143 -0.1500366861 -2.0619254381
H 0.0714340643 -1.7681877861 -1.3111637281
H 2.3188304143 -1.0069983561 -0.0251567081
H 0.0046092043 -1.9480056161 1.0116767719
H 0.2822501843 -0.4675334761 2.0246306719
H 1.8364794343 1.3760941039 1.0531320619
H 1.8361345343 1.5300021139 -0.7280053381
H -0.4029181857 1.8571870139 -0.6342217281
