14
Molecule 2782 / 7211 from QM7b dataset
C -2.5883611938 -1.2087846459 -0.2451952309
O -1.1678668338 -1.1736249359 -0.1502265009
C -0.6822703138 0.1468470541 -0.0381513009
C 0.8269712862 0.1341938241 0.0641037791
C 1.5718639962 -0.9849335259 0.0503548591
C 1.4324058662 1.4256025841 0.1804121991
N 1.8858064062 2.4998366541 0.2737136091
H -2.8742182138 -2.2639463059 -0.3293362809
H -2.9465774938 -0.6632094659 -1.1370248309
H -3.0633797838 -0.7742794559 0.6530922891
H -1.1007994138 0.6509107241 0.8575914991
H -0.9801474738 0.7571797341 -0.9158274909
H 1.0870194762 -1.9554043459 -0.0390424509
H 2.6567348862 -0.9386597159 0.1272181791
