21
Molecule 5888 / 7211 from QM7b dataset
C -2.4717364126 -2.2355452466 -0.4525176624
C -0.9940012226 -1.9600205866 -0.1679516124
C -0.6668553126 -0.4657507266 -0.0929046724
C 0.8242863374 -0.1895170066 0.1717260176
C 1.1739552674 1.2760325934 0.2948795676
C 0.9909028474 2.1238355534 -0.9376337724
C 1.6262172474 1.7947333534 1.4475336476
H -2.6804644826 -3.3141030366 -0.4995755524
H -2.7807172726 -1.7939939166 -1.4128130124
H -3.1149796026 -1.8050215366 0.3305394576
H -0.3725201626 -2.4291192366 -0.9509089124
H -0.7027560926 -2.4437845866 0.7807899676
H -1.2663838626 0.0039300734 0.7066809676
H -0.9768481126 0.0169326734 -1.0357287624
H 1.4137592174 -0.6310818966 -0.6540614824
H 1.1305480474 -0.7133415866 1.0918956276
H 1.5321149174 1.6913448034 -1.7954417524
H 1.3523886574 3.1484265034 -0.7805725824
H -0.0691111426 2.1795038334 -1.2333348724
H 1.7587744174 1.1743523734 2.3366351976
H 1.8795829674 2.8533479334 1.5371066276
