13
Molecule 1821 / 7211 from QM7b dataset
O -1.9137545113 -0.0669633651 0.0974074261
C -0.5158379313 -0.4112304151 0.1203618661
C -0.2213171413 -1.2127204351 -1.0645309239
C 0.0734295287 -1.8621712851 -2.0445899939
C 0.3404533187 0.8520622849 0.1577900861
C 0.7218794387 1.4509987749 1.4494861861
O 1.6759636487 0.7108034649 0.6629829961
H -2.0992139513 0.4133303949 0.9247374561
H -0.2684059813 -1.0136892551 1.0169408061
H 0.3233221387 -2.4439420951 -2.9083907739
H 0.2377413587 1.4982390849 -0.7217915539
H 0.4159701387 0.9645516349 2.3836835061
H 0.9012699187 2.5291558949 1.5105938561
