12
Molecule 1360 / 7211 from QM7b dataset
C 0.3459501265 1.0294876219 -0.0937225222
C 1.0192764165 -0.3441991281 0.1761345878
C -0.3329832435 -1.0229646681 -0.1761057422
C -1.0322546035 0.3376889719 0.0937061778
H 0.5989339965 1.8705866019 0.5669108378
H 0.4930297765 1.3459153519 -1.1374783322
H 1.2592367665 -0.4663758581 1.2432007278
H 1.9052262765 -0.6134701081 -0.4158853922
H -0.3782626435 -1.2884253781 -1.2431824022
H -0.6463482735 -1.8943247581 0.4158800978
H -1.8578488435 0.6372459919 -0.5669643222
H -1.3738992335 0.4087713719 1.1374437778
