16
Molecule 4588 / 7211 from QM7b dataset
C -1.4164719750 -2.7403365720 -0.0678935842
O -0.5173533350 -1.8730976120 0.6350405158
N -0.3943023850 -0.6737125620 -0.0818906742
C 0.4151754150 0.1377688080 0.5159807658
C 0.6953018350 1.4512031480 -0.0492765142
C 0.0212964950 1.8380545580 -1.3377865942
C 1.5476784650 2.2721123880 0.6028737058
H -1.4774648750 -3.6494940820 0.5424956458
H -1.0257343650 -2.9836766620 -1.0673939142
H -2.4121361050 -2.2812796120 -0.1603699942
H 0.9031269550 -0.1512858020 1.4572609058
H 0.2755055950 1.1281400280 -2.1382000942
H 0.3192493350 2.8474477380 -1.6472184642
H -1.0725431450 1.8045149280 -1.2298445242
H 2.0252473450 1.9699707580 1.5366198658
H 1.7858112250 3.2636175580 0.2161744958
