13
Molecule 2762 / 7211 from QM7b dataset
C -1.7586794091 0.1370917463 -0.8965947569
C -0.2212071191 0.1060138063 -0.8712307669
C 0.3891735409 -1.1417895137 -0.2156640069
O 0.8144181109 -0.7177855237 1.1222593331
N 0.8580484809 0.6863174963 1.1486827631
C 0.3440678109 1.1488458263 0.0652258531
H -2.1509857391 -0.6461717537 -1.5607963269
H -2.1294662491 1.1052405163 -1.2621065069
H -2.1666241291 -0.0251744537 0.1110844631
H 0.1643986409 0.2422568063 -1.8934865269
H 1.2825751609 -1.4994258437 -0.7520109569
H -0.3221186391 -1.9686817737 -0.0858639569
H 0.2804077609 2.2290470263 -0.0660921269
