14
Molecule 2108 / 7211 from QM7b dataset
C -2.5364060563 -1.9626462153 0.8676117778
C -1.0524333263 -1.6192491753 0.8893880478
N -0.8215308263 -0.2696764953 0.3806885778
N 0.3626278137 0.0210495547 -0.1354369022
C 0.6774965737 1.2710969647 -0.3338453522
C 1.9147874337 1.5981825147 -0.9443500222
N 2.9189751137 1.9431427247 -1.4396400822
H -2.6923664263 -2.9749011753 1.2627338078
H -2.9371725763 -1.9216520253 -0.1540716622
H -3.1196441863 -1.2732470653 1.4962797478
H -0.4756775563 -2.2926360953 0.2419157678
H -0.6484196163 -1.7201696653 1.9131837178
H -1.3868016863 0.4876431147 0.7854252978
H 0.0189095937 2.1090478947 -0.0575745422
