17
Molecule 5909 / 7211 from QM7b dataset
C -2.5010144560 -1.3481857645 0.7891556493
N -1.0431760460 -1.2738687745 0.7264494093
C -0.5679114960 0.0023269055 0.1925515493
C 0.9623175340 0.0213699055 0.0842044893
C 1.4968696240 1.3495436155 -0.3639161007
C 2.2129732840 1.5597667855 -1.4743354607
H -2.8056461260 -2.3549020645 1.1070784593
H -3.0114782860 -1.1150055945 -0.1697056707
H -2.8711191160 -0.6361603445 1.5431869393
H -0.6961120760 -2.0290754645 0.1289317893
H -0.8964778560 0.7984490255 0.8840015393
H -1.0087306460 0.2481394955 -0.7994183807
H 1.2952702840 -0.7652887345 -0.6144987707
H 1.3717412340 -0.2341056945 1.0770801193
H 1.2646937040 2.2026822555 0.2854039293
H 2.4674761640 0.7393425855 -2.1508116107
H 2.5732081040 2.5540772755 -1.7423549707
