17
Molecule 6785 / 7211 from QM7b dataset
C -2.3828478833 -1.2070443964 0.0164974429
C -0.8882250933 -1.1021012364 -0.1200266871
O -0.3470150533 -1.1754706964 -1.4644232971
C -0.2174957333 0.0594040136 -0.7279248571
C 1.1905848967 0.4792292636 -0.3489470471
C 1.2008215967 1.5878276036 0.6657059929
C 1.7740355767 1.5184044736 1.8722399829
H -2.7015304733 -0.8570844664 1.0099768629
H -2.7106348033 -2.2507799364 -0.0962059971
H -2.8881691633 -0.6028650964 -0.7491700671
H -0.3029136933 -1.6767088764 0.6111318929
H -0.8612823333 0.8671368436 -1.1047063971
H 1.7013967567 0.8153560736 -1.2692433471
H 1.7419686067 -0.3967599564 0.0251935829
H 0.6916215867 2.5139251036 0.3733426729
H 2.2947900867 0.6165165436 2.2047504329
H 1.7496336967 2.3607110136 2.5650477729
