13
Molecule 4503 / 7211 from QM7b dataset
C -1.8237085103 -1.7767215567 -0.0742375368
C -0.3038043003 -1.6659292167 0.1099527632
C 0.1779662997 -0.2530770967 0.0499377032
N 0.7559560797 0.3366474433 1.0764327232
O 1.0364232797 1.6437315433 0.5917998632
C 0.5821920497 1.6636227933 -0.6747666468
N 0.0457717697 0.5485815633 -1.0766152568
H -2.1324120203 -2.8306996667 -0.0673324668
H -2.1355657203 -1.3318544367 -1.0287517568
H -2.3562887903 -1.2592184467 0.7358206332
H 0.2096710097 -2.2310709267 -0.6839648468
H 0.0084547597 -2.0928712667 1.0728259332
H 0.7067863497 2.5918898133 -1.2270363668
