17
Molecule 756 / 7211 from QM7b dataset
N -2.8735261648 -0.2147992679 1.3935485841
C -2.0438464248 0.0999945221 0.4604408441
N -0.7582137948 -0.3771692079 0.4375309841
C 0.2843525452 0.1151363821 -0.4241208459
C 1.4768966752 0.9411982021 0.1490000241
C 2.3883760852 0.2364544921 -0.8907123859
C 1.3201692552 -0.8846900879 -1.0061642959
H -3.7870698148 0.2088112921 1.2064137441
H -2.2654480048 0.7460213021 -0.4085090759
H -0.4908708748 -0.9266448079 1.2541057541
H -0.1980551848 0.6748853521 -1.2410185359
H 1.7124970052 0.6123696521 1.1726279741
H 1.4011969252 2.0370888921 0.1351782441
H 2.4659776452 0.8177411021 -1.8205826759
H 3.3967664552 -0.0535416779 -0.5712490359
H 1.1137789452 -1.3284884179 -1.9896715559
H 1.5177178052 -1.6930244179 -0.2855118559
