20
Molecule 6013 / 7211 from QM7b dataset
C -0.9864835296 -3.2306876025 0.5185914001
N 0.1710738804 -2.3628538925 0.3125910801
C -0.1781576496 -0.9410585825 0.3709740601
C 1.0399501004 -0.0662791125 0.0792440601
C 0.7705930104 1.4242005775 0.2106761901
O -0.1614513996 1.8329559475 -0.7900931999
C -0.4465753496 3.2198134775 -0.7079519299
H -0.6886396796 -4.2810032525 0.3920598901
H -1.8388345796 -3.0235438525 -0.1636518599
H -1.3528824196 -3.1115183725 1.5505588501
H 0.5746611304 -2.5622533225 -0.6070177899
H -0.5412280196 -0.7286292925 1.3931518501
H -1.0045203796 -0.6719357325 -0.3201314499
H 1.4101316104 -0.2666583125 -0.9411796799
H 1.8506010304 -0.3383890425 0.7739335301
H 1.7152593404 1.9940416675 0.0963985701
H 0.3657317804 1.6576370175 1.2183476601
H -1.1526157496 3.4558777175 -1.5142389099
H 0.4671525704 3.8315321975 -0.8383540199
H -0.9066820896 3.4852397075 0.2635287101
