12
Molecule 3919 / 7211 from QM7b dataset
C -0.6070033456 -2.5926053660 0.3279790106
C -1.0748737756 -1.3598638060 0.0784388306
C -0.2562140256 -0.1565623260 -0.0072358694
N -0.8531945156 1.0050797140 -0.2625234794
O 0.1718345444 1.9640445640 -0.2845795694
C 1.3508206644 1.3420171940 -0.0412042394
C 1.1589563444 0.0084680140 0.1429079506
H -1.2803878556 -3.4475633960 0.3773588006
H 0.4541222244 -2.7899408260 0.4899911306
H -2.1434709256 -1.1956919960 -0.0795725294
H 2.2282914944 1.9818348840 -0.0321362494
H 1.9090151444 -0.7452754360 0.3533456606
