14
Molecule 1279 / 7211 from QM7b dataset
C -2.6433791650 -1.1084372992 -0.4008288135
O -1.2208660350 -1.1541293592 -0.1937298535
C -0.6207348950 0.0536117108 -0.0915521835
C 0.7159642050 0.1721153908 0.1077670365
C 1.6614590650 -0.9959441392 0.2340268465
C 1.2499294950 1.4877891908 0.2008160065
N 1.7327856250 2.5525501408 0.2835693365
H -2.9754192450 -2.1497639292 -0.4641766735
H -2.8843311450 -0.5872555592 -1.3397455035
H -3.1448122950 -0.6125308092 0.4441300465
H -1.2633799150 0.9348705708 -0.1772028535
H 1.1156985050 -1.9414287592 0.1443794765
H 2.1773953350 -0.9759872292 1.2047746065
H 2.4328454350 -0.9575295192 -0.5486789835
