17
Molecule 6863 / 7211 from QM7b dataset
C -2.2710520987 -1.1818254051 -0.7152777764
C -0.7592776387 -0.9623468851 -0.6605917664
C -0.3728765287 0.5162055349 -0.5357006164
O -0.9323963687 1.1302252949 0.6290673636
C 1.1615297413 0.7358500349 -0.5832659164
C 1.8348246113 0.1887154849 0.5885244936
C 2.3349446313 -0.2546876251 1.6031374236
H -2.5138556287 -2.2523317351 -0.7670876464
H -2.7119412687 -0.6951762951 -1.5990163864
H -2.7589594387 -0.7604533051 0.1741149536
H -0.2847570787 -1.3705518051 -1.5696063164
H -0.3221345487 -1.5127669351 0.1902648736
H -0.8089720087 1.0742242649 -1.3817674364
H -0.4456837287 0.7701701349 1.3966226036
H 1.3575711813 1.8185927449 -0.6367323064
H 1.5728786913 0.2835539149 -1.5007429264
H 2.8064684713 -0.6485301751 2.4804566336
