16
Molecule 5616 / 7211 from QM7b dataset
C -2.3976857066 -1.2427399337 -1.3044599862
C -1.2932381566 -1.1703190037 -0.2575463662
N -0.4229245366 -0.0208930337 -0.5117121562
N 0.6965322734 0.0211862163 0.2776084538
C 1.2250431934 1.1653076663 0.5387378438
C 2.5005868334 1.2673642463 1.3107549538
H -3.0389235566 -2.1155720837 -1.1212968762
H -1.9759220266 -1.3238618737 -2.3160425762
H -3.0421205066 -0.3500668437 -1.2729977062
H -0.6543856466 -2.0642704937 -0.3012000662
H -1.7324694966 -1.1354175037 0.7591767838
H -0.9416788466 0.8686421863 -0.5521087062
H 0.7556621434 2.1033700863 0.1836322238
H 2.8407003434 0.2679338763 1.6096296038
H 2.3723417334 1.8852462363 2.2141554238
H 3.2933047234 1.7442662863 0.7108591438
