11
Molecule 2297 / 7211 from QM7b dataset
C -1.9093160952 0.4918345418 0.6935878862
C -0.5902585252 0.3011728518 0.5220315462
C 0.0478044148 -1.0826408182 0.5039694062
C 0.5719935348 -1.4515790082 -0.8112139738
N 0.9811805948 -1.7579455682 -1.8587678838
C 0.2977508448 1.4131985218 0.3668000162
N 1.0526173348 2.2988064618 0.2559184062
H -2.3360699052 1.4934142218 0.7153743262
H -2.5847999452 -0.3552072582 0.8147052062
H -0.6980097152 -1.8309442182 0.8080136262
H 0.8744490148 -1.1252055382 1.2308038962
