13
Molecule 2391 / 7211 from QM7b dataset
C -2.4652377134 0.1711538475 0.3295905480
C -1.1309957234 0.1294522275 0.3019836980
C -0.2111983634 1.3299504875 0.3598326880
O 1.0626651766 0.8909649675 -0.1768219320
C 1.0939009166 -0.4791745225 -0.3155544820
O 2.0654782666 -1.0586342225 -0.7348547320
C -0.2369175934 -1.0662901925 0.1450719780
H -3.0665356634 -0.7373329625 0.2793168080
H -3.0015974934 1.1185296675 0.4095148480
H -0.0407232134 1.6754756675 1.3933753180
H -0.5642625034 2.1761747775 -0.2452340920
H -0.5934125134 -1.8169000625 -0.5709221520
H -0.0559252934 -1.5851441325 1.1018159980
