15
Molecule 4198 / 7211 from QM7b dataset
O -2.2493372131 0.6744846007 -0.1078342031
C -0.8555566331 0.6163090907 -0.3428907431
C -0.0303141231 1.5972372007 0.4948977369
O 0.9124352969 0.5465366407 0.8619677069
C -0.0077226531 -0.4803859693 0.3861983269
C 0.6263771969 -1.5684467493 -0.4067211331
C 1.9137866169 -1.5924379393 -0.7709672631
H -2.7085972331 0.2303291607 -0.8402665531
H -0.6133844131 0.6615939707 -1.4168155531
H -0.5943395131 1.9650309007 1.3696598169
H 0.4632858569 2.4335093007 -0.0208769731
H -0.5969351931 -0.8976161893 1.2274461569
H -0.0448110331 -2.3891311593 -0.6855954731
H 2.5885957769 -0.7873146593 -0.4757819431
H 2.3219786569 -2.4182250593 -1.3539390531
