15
Molecule 6041 / 7211 from QM7b dataset
C -2.7787695079 -0.6676624211 -0.2075721996
C -1.2817930579 -0.7394555311 -0.1080820896
N -0.7812498179 -2.0346913911 -0.0377124796
C -0.5188849279 0.3911353189 -0.0237819296
C 0.9131413821 0.4268825289 0.0727360704
N 1.5423143221 1.5580946989 0.1540377804
O 2.9447994521 1.3321280189 0.2287585204
H -3.1235772879 0.3721036589 -0.2092314396
H -3.2513087679 -1.1918411811 0.6379921304
H -3.1367189179 -1.1489047911 -1.1330991696
H -1.3477629579 -2.7513600711 -0.4826462496
H 0.2126452221 -2.1590161511 -0.2072373396
H -1.0306136879 1.3535479389 -0.0222300896
H 1.5030248821 -0.5026035911 0.0812120904
H 3.2863010421 2.2418275089 0.2910956904
