14
Molecule 1841 / 7211 from QM7b dataset
N -1.4855083798 1.3572197781 -1.2116194105
C -0.9988415798 0.0498235181 -0.8469925905
C 0.0010926102 -0.6186852919 -1.7770572405
C 0.4548454602 -0.0399665219 -0.4756220105
O 0.8490055902 -0.9913993419 0.5227543995
C 0.8787696202 -0.5136173019 1.7939324295
O 0.6033859202 0.6117507781 2.1464029095
H -1.7749315398 1.8739032181 -0.3776680205
H -2.2991049398 1.2809397681 -1.8260055805
H -1.6498383998 -0.6464377519 -0.3007331005
H 0.2872644102 -0.0828703119 -2.6816574105
H -0.0400541598 -1.7050104819 -1.8542701705
H 1.0328171602 0.8837374281 -0.4600199905
H 1.2080773802 -1.3329382219 2.4628681495
