11
Molecule 3654 / 7211 from QM7b dataset
C -2.1037013250 0.4473486012 -0.0036461136
C -0.6268312650 0.4437767412 -0.0003581136
N 0.1507157450 1.4730448512 0.0029712264
C 1.4862128150 0.8855356812 0.0040950364
N 1.6088442950 -0.3992681188 0.0020423764
C 0.2407426550 -0.8467225788 -0.0008427936
O -0.1471956950 -1.9917015288 -0.0026853236
H -2.4955360650 1.4696927212 0.0060089264
H -2.4831444650 -0.1094381888 0.8668786264
H -2.4784595750 -0.0896835588 -0.8886632836
H 2.3392481050 1.5669734612 0.0066750064
