18
Molecule 5696 / 7211 from QM7b dataset
C -1.9377751917 -0.6242621892 0.2893333162
C -0.4739461617 -0.8302170592 -0.1356400738
N -0.3006529417 -1.2049553892 -1.5515827238
C 0.3814299483 0.3981680308 0.1873773162
C 0.2150382783 1.6133543508 -0.6969792538
C 0.8700116283 0.5570016008 1.5699624062
O 1.7576613383 0.0975943508 0.5325031962
H -2.0220779317 -0.3516805592 1.3525971562
H -2.5156552017 -1.5457376992 0.1275077262
H -2.4128562617 0.1745971808 -0.3015938538
H -0.0419188917 -1.6523122392 0.4579839562
H -0.9047783517 -0.6254894692 -2.1421276838
H -0.6157773417 -2.1674475292 -1.6895881638
H 0.8741010483 2.4225648508 -0.3582020638
H -0.8214503217 1.9828729808 -0.6824989038
H 0.4850699583 1.3636517508 -1.7329867938
H 0.6128744283 -0.1928741292 2.3283099662
H 1.0771977483 1.5615193808 1.9573298862
