15
Molecule 3216 / 7211 from QM7b dataset
C -2.2132495164 -0.7113642068 -0.0203984965
C -0.7001023364 -0.6498286868 -0.0186068465
O -0.0341412864 -1.6579562068 -0.2718163965
C -0.0006946564 0.6374259832 0.2895889035
C -0.6733507064 1.7871939732 0.4763488735
C 1.5106794336 0.5578140232 0.3848372535
O 2.1204904536 0.0621263832 -0.8049981265
H -2.6293128864 -0.0330108368 -0.7793247165
H -2.6225345864 -0.4068427368 0.9533424135
H -2.5226259764 -1.7371889168 -0.2449927665
H -1.7616132264 1.8444994632 0.4287150535
H -0.1435529364 2.7192955632 0.6841410635
H 1.7765205836 -0.0715982068 1.2564800435
H 1.9231670736 1.5617156932 0.5594111935
H 1.7494653136 -0.8376779468 -0.9138742265
