17
Molecule 1786 / 7211 from QM7b dataset
C -2.5457168770 -2.1436216007 0.5309109442
C -1.1552039770 -2.0920130007 -0.1041831658
N -0.8092857470 -0.7362059907 -0.5018718358
C 0.2440155730 -0.2251104807 0.0117645242
N 0.6592906830 1.0541280193 -0.2954015058
C 1.7867934030 1.6714500393 0.2246982742
C 2.2045765430 2.9162561093 -0.0647517058
H -2.8294708270 -3.1812090407 0.7591258442
H -3.2947574670 -1.7188509907 -0.1516648958
H -2.5709146870 -1.5648679807 1.4653752242
H -1.1525908770 -2.7226139907 -1.0106014958
H -0.4071025270 -2.5269504407 0.5924431342
H 0.9073608030 -0.7445403807 0.7295701142
H 0.0728281130 1.5611154193 -0.9575972258
H 2.3428572730 1.0418135793 0.9238551142
H 1.6678139030 3.5635056093 -0.7596961358
H 3.1071537530 3.3053776193 0.3994704842
