16
Molecule 5726 / 7211 from QM7b dataset
C -2.5829932144 0.8582236942 -1.2780524651
C -1.6251763544 -0.0842174658 -0.5792851451
O -0.3637428144 0.6222782442 -0.4374018551
N 0.6081951956 -0.2230357358 0.1434249749
C 1.5061394756 -0.8675686558 -0.7969755351
C 0.9699906756 0.0917147742 1.4321424049
O 1.9415097056 -0.3763077458 2.0145028049
H -3.5578654244 0.3675607942 -1.4015526951
H -2.2067532944 1.1358047842 -2.2718967351
H -2.7300167144 1.7749594542 -0.6911931551
H -1.4648691144 -1.0037845858 -1.1677543151
H -1.9903276944 -0.3706933958 0.4213534849
H 0.9720914556 -1.6202609658 -1.3926337251
H 2.2855968856 -1.3565932158 -0.2006158551
H 1.9636586056 -0.1232329258 -1.4663049551
H 0.2412203056 0.8008121342 1.8828399749
