20
Molecule 6088 / 7211 from QM7b dataset
C -0.7701758732 -2.3926710737 -0.7750612451
C -1.1497082832 -0.9931382237 -0.2813506751
C 0.0417925568 -0.1097876637 0.0710730249
C 0.8367612068 -0.5569088937 1.2833252649
C 0.7447383568 0.6112866363 -1.0401800451
N -0.2104462832 1.3281542263 -0.1850678151
C 0.3398637068 2.3400603663 0.7110576749
H -1.6653281332 -2.9580497937 -1.0705622851
H -0.2534756332 -2.9803641137 -0.0020246751
H -0.1058893532 -2.3364154937 -1.6512576551
H -1.8052081232 -1.0720193437 0.6041227149
H -1.7334800532 -0.4662002537 -1.0511906151
H 1.7085916968 0.0795862563 1.4780122349
H 1.2103842668 -1.5809891537 1.1390445349
H 0.2036313268 -0.5600092937 2.1854156149
H 0.4388001668 0.4645556663 -2.0808904451
H 1.8113056568 0.8256057163 -0.8994533751
H -0.3169820232 2.4508019363 1.5863782249
H 0.3524501568 3.3010941263 0.1761814449
H 1.3686940068 2.1422772763 1.0685149949
