15
Molecule 893 / 7211 from QM7b dataset
C -3.4166378405 -1.1166670846 0.0188774383
C -1.8888417305 -1.1328047746 0.0194545583
C -1.2971135205 0.2906844454 -0.0075727417
C 0.1537579095 0.3337850254 -0.0083990517
C 1.3741820995 0.3773917254 -0.0090318517
C 2.8106894395 0.3647726754 -0.0095109417
O 3.5150348895 1.3675922354 -0.0118359017
H -3.8217328505 -2.1375401146 0.0385586183
H -3.8116647605 -0.6182757846 -0.8793941317
H -3.8119321705 -0.5839800746 0.8971278383
H -1.5120939705 -1.6900449046 -0.8520667617
H -1.5124762405 -1.6563455446 0.9117877983
H -1.6636933905 0.8671856554 0.8605142983
H -1.6629914505 0.8332057454 -0.8976298917
H 3.2600875795 -0.6579149346 -0.0071150117
