20
Molecule 5023 / 7211 from QM7b dataset
C -0.9149752383 -1.9416192680 -1.6602515021
N -0.7664549283 -1.3650020580 -0.3238033821
C 0.0620410317 -0.1677225980 -0.3151621521
C -0.5800406983 1.1549758120 -0.8126154621
C 0.1564020417 1.8853470920 0.3424530779
C 0.3113190517 0.5133408220 1.0578229679
C 1.5835900017 0.2090906420 1.8325921379
H -1.4869245483 -2.8776820580 -1.5975752021
H 0.0475667017 -2.1520257180 -2.1737988321
H -1.4852314783 -1.2476153180 -2.2962268221
H -0.3431552183 -2.0614015580 0.2960820779
H 1.0372277317 -0.3180208780 -0.8344084821
H -1.6668133483 1.1282838520 -0.6446756321
H -0.3749913183 1.4775933520 -1.8422005121
H 1.1334229217 2.2774640620 0.0199702079
H -0.3834916283 2.6803849820 0.8740952879
H -0.5778842183 0.3313385720 1.6849462879
H 2.4749482017 0.3764821420 1.2078317279
H 1.6088045117 -0.8346799480 2.1833861579
H 1.6716890517 0.8544179120 2.7201630079
