14
Molecule 556 / 7211 from QM7b dataset
C -1.5597622038 -0.9492862448 -0.2572051884
N -0.1230727038 -0.8445332048 -0.0645177484
C 0.6317667962 -2.0878542148 -0.0389525284
C 0.5509487262 0.3454590552 0.0907880216
O 1.7725038362 0.4299844752 0.2528005916
C -0.2628936238 1.5548415252 0.0564159116
C -0.8096391938 2.6399288052 0.0497379316
H -2.0069906938 0.0502635452 -0.2575612884
H -2.0146060438 -1.5430320348 0.5523090016
H -1.7847640638 -1.4407425748 -1.2177164284
H 0.2767270262 -2.7342413248 0.7793909916
H 1.6886036462 -1.8468812048 0.1151201016
H 0.5110827462 -2.6290397848 -0.9909009784
H -1.2910973838 3.5969964552 0.0438732216
