15
Molecule 2966 / 7211 from QM7b dataset
N -0.2561592297 -2.4407301435 -0.6340477633
C -0.7504074997 -1.2967194935 0.1532952167
C 0.2615752203 -0.1744216335 0.1814486367
C 0.4606472603 0.7214422565 -1.0280906533
C -0.1851379297 1.2553959665 0.2280478767
O 0.5416379603 2.1124089965 1.0854646567
H -0.9443051497 -3.1971590435 -0.6086909533
H 0.5907052903 -2.8161801135 -0.1978660233
H -1.0211246197 -1.5519081635 1.1986837867
H -1.6729703897 -0.9374079235 -0.3327842133
H 1.1675521303 -0.3698712835 0.7633101167
H -0.1659802297 0.5414753765 -1.9031166933
H 1.4780014103 1.0514288665 -1.2407623933
H -1.2659583297 1.4420862765 0.2040790967
H 0.5740285103 2.9891924665 0.6635579067
