13
Molecule 3117 / 7211 from QM7b dataset
C -1.3393833567 -1.7137267246 0.1361894148
C 0.1312502233 -1.2761619046 0.0271710448
C 0.2802016533 0.2243483154 0.0606414748
N 0.3430780833 1.0350026254 -0.9522672652
O 0.2656620233 0.3425703354 -2.1642610452
C 0.3305726533 0.8705493654 1.3398072548
N 0.3648555033 1.3068056854 2.4239709848
H -1.4068113067 -2.8098734646 0.1260950248
H -1.9271133067 -1.3254480446 -0.7058903752
H -1.7933971567 -1.3538829346 1.0695947748
H 0.5698134833 -1.6430185246 -0.9100794552
H 0.7104830833 -1.6972204746 0.8612769148
H 0.3503468733 1.0661682754 -2.8116896952
