17
Molecule 6190 / 7211 from QM7b dataset
C -0.7188518368 -2.1544472774 1.3307869256
C -0.5631082268 -1.7008358274 -0.1293667844
C -0.0069911768 -0.3215084074 -0.2635728244
C 1.1397346832 0.1206765626 -0.8078495144
C 1.2528501832 1.6115084526 -0.5916778644
C -0.1710189368 1.9445865226 -0.1001478244
O -0.7880902168 0.6783743926 0.2893431556
H -1.1472525568 -3.1652974974 1.3772473056
H -1.3814861468 -1.4750598774 1.8832021256
H 0.2542973932 -2.1702241874 1.8421121156
H -1.5473621268 -1.7324421174 -0.6270044944
H 0.0975597032 -2.3892682874 -0.6759752744
H 1.8994846832 -0.5077363074 -1.2643844544
H 2.0228319332 1.8562098926 0.1620742356
H 1.5037074432 2.1730828626 -1.5043404744
H -0.7874176768 2.3726108426 -0.9078909244
H -0.2053290468 2.6112493826 0.7711819156
