16
Molecule 3536 / 7211 from QM7b dataset
C -1.7872436196 0.0050401759 0.5156940809
C -0.2607176196 -0.0360358441 0.5144004109
C 0.3298023204 0.0959687859 1.9130791109
C 0.2976369804 -1.2296701241 -0.2927773891
C 0.8099659704 -0.5349816141 -1.5197203191
N 0.7558825404 0.7497673559 -1.4748177191
O 0.1987490104 1.1568891859 -0.2642327491
H -2.1742172296 -0.0456715241 -0.5115111291
H -2.1453562196 0.9371292359 0.9736517309
H -2.1953416096 -0.8428364441 1.0860409609
H 1.4273229504 0.1035756459 1.8702514909
H 0.0080731304 -0.7436495541 2.5465784009
H -0.0043985396 1.0301045159 2.3851730409
H -0.4773394396 -1.9758552541 -0.5264570691
H 1.1105742504 -1.7572868241 0.2339539709
H 1.2328486504 -1.0109230541 -2.4041507391
