13
Molecule 5027 / 7211 from QM7b dataset
C -3.0378880376 0.0134836722 0.1274272054
C -1.8207513276 -0.0471371778 0.0770334454
C -0.4159758976 -0.0504051478 0.0206851054
C 0.4029860224 -1.1252491378 -0.0553166446
O 1.7347337024 -0.8511608578 -0.0762711146
C 1.8586946424 0.6115071222 -0.1693566246
C 0.4608169924 1.1948152622 0.1120072754
H -4.1065292476 0.0493666422 0.1725082954
H 0.1467963624 -2.1822172878 -0.0849887246
H 2.2058601324 0.8351573922 -1.1894290946
H 2.6276184824 0.9156673722 0.5512231654
H 0.1771453424 1.9579375722 -0.6259837946
H 0.3839449424 1.6512876122 1.1119604954
