17
Molecule 6038 / 7211 from QM7b dataset
C -1.3276969446 0.5158609787 1.7076608088
C -0.0886331446 -0.0322135113 1.0207570688
O -0.4771143146 -1.1725721613 0.2204282688
C 0.5204963954 -1.3521143813 -0.7975259312
C 1.0231297454 0.0409412387 -1.1317476012
C -0.0396830146 1.1008799087 -1.2960724912
C 0.6224301354 0.8999739987 0.0474195888
H -1.0571537146 1.3519878987 2.3678416488
H -1.8047662046 -0.2638153813 2.3164831988
H -2.0552002246 0.8745898787 0.9660092788
H 0.6482051954 -0.3555191413 1.7868049988
H 1.3575828154 -1.9771196113 -0.4270659012
H 0.0325023854 -1.8764945413 -1.6338356112
H 1.9917804854 0.1536642587 -1.6198962812
H 0.2292580054 1.9973180087 -1.8545022912
H -1.0738062346 0.7701895687 -1.4151235012
H 1.2882529754 1.6658069587 0.4469096488
