15
Molecule 5162 / 7211 from QM7b dataset
O -0.6278975179 -1.9220639161 -1.5570928188
C -0.5673180479 -1.4729767361 -0.1986976588
C 0.5028623821 -0.3796401961 -0.1103697388
C 0.6894416621 0.1561172139 1.3306868812
O 0.1630620221 1.5217622439 1.3618606612
C -0.0756333479 1.8625829039 0.0520799712
C 0.1180173621 0.8875846739 -0.8451615688
H -1.3407653379 -2.5783830561 -1.6269486388
H -0.2958352579 -2.3060714261 0.4792637612
H -1.5388049979 -1.0583495661 0.1307608412
H 1.4431864521 -0.8092706061 -0.4941257288
H 1.7503602721 0.2088441239 1.6176424312
H 0.1425143921 -0.4246345061 2.0882758012
H -0.4067649479 2.8902700139 -0.0875581688
H -0.0394266679 0.9580012439 -1.9166803488
