15
Molecule 6877 / 7211 from QM7b dataset
C -2.1114033255 -0.4589760915 0.0137593701
C -0.6241692955 -0.3439049915 0.0219386401
C 0.2127027545 0.7669720185 -0.0385795899
N -0.1853419755 2.1192557185 -0.1844373899
C 1.5627197345 0.2997474385 -0.0243588199
C 1.5240812045 -1.0820656015 0.0481936301
N 0.2038605445 -1.4606946815 0.0750021701
H -2.5730811455 0.5376780385 0.0168055601
H -2.4991091355 -0.9961028515 0.8957497301
H -2.4898214355 -0.9763552215 -0.8844644099
H 0.4896848845 2.7527991885 0.2430075101
H -1.0974026055 2.3009475385 0.2342007401
H 2.4601035045 0.9110524685 -0.0671909099
H 2.3236782145 -1.8137924615 0.0844789301
H -0.1272686955 -2.4167905915 0.1177400001
