22
Molecule 1445 / 7211 from QM7b dataset
C -0.6627529287 -2.1487221231 -1.3900251374
C -0.8713957287 -1.2280771431 -0.1864584774
N -0.2138192387 0.0763816269 -0.3313625174
C -0.8446930187 1.1190546369 0.4915721226
C -0.7375648787 0.9771270369 2.0193585326
C 1.2418751913 -0.0158160431 -0.1698243774
C 1.9852308213 1.2543982069 -0.5791616574
H -1.2571230487 -3.0661729231 -1.2681935574
H 0.3864120513 -2.4554040131 -1.5067616274
H -0.9773225787 -1.6474654931 -2.3166310374
H -0.5555494587 -1.7594045031 0.7396677426
H -1.9510684987 -1.0346946331 -0.0786653074
H -1.9086139987 1.1474732569 0.2043135226
H -0.4258941387 2.0910413369 0.1877025526
H -1.1801528487 0.0355752669 2.3756700326
H -1.2751560387 1.8026592269 2.5086319426
H 0.3056475313 1.0128689769 2.3655848326
H 1.5871209913 -0.8387843331 -0.8129612274
H 1.5303449813 -0.2986638531 0.8684742426
H 1.6989457913 1.5589636069 -1.5963512974
H 3.0695231513 1.0739101569 -0.5634832474
H 1.7854240413 2.0956391069 0.0997740226
