17
Molecule 4926 / 7211 from QM7b dataset
C -2.4783285908 -1.0943837312 0.0366093523
N -1.1406078308 -0.5360308412 0.1011779223
C -0.1454573108 -1.3500564412 0.0778588723
N 1.1639829892 -0.9598486612 0.1155701823
C 1.6185252592 0.3898390788 0.4757402523
C 1.2012297192 1.5053856888 -0.4963244477
O -0.1106972708 1.9912871988 -0.2898313477
H -3.0528650008 -0.7961019712 0.9274142823
H -2.4883972908 -2.1991862912 -0.0275252477
H -3.0112257508 -0.6922818312 -0.8394135777
H -0.2742724808 -2.4451243912 -0.0006046077
H 1.8391350992 -1.7091788912 0.2121283423
H 2.7164286292 0.3407673788 0.5121163423
H 1.2531559992 0.6570859988 1.4837121823
H 1.3582937792 1.1436620088 -1.5336172577
H 1.8840201592 2.3567318188 -0.3383307477
H -0.6781355408 1.1797775288 -0.1577698377
