14
Molecule 1516 / 7211 from QM7b dataset
C -1.8936422225 -1.7593945336 -0.1448215932
C -0.3763889225 -1.6793391436 0.0775514668
C 0.1532020675 -0.2769477736 0.0222804868
N 0.6561296075 0.2804632464 1.1115450668
O 1.0460373675 1.5842277164 0.7301347968
C 0.7567204075 1.7498495564 -0.5794801332
C 0.1913105975 0.6205761064 -1.0906202832
H -2.2338605925 -2.8033857436 -0.1028766832
H -2.1813325825 -1.3508083436 -1.1243690432
H -2.4317902125 -1.1926608336 0.6277289568
H 0.1443859175 -2.2839528936 -0.6824458132
H -0.1124505725 -2.0999858236 1.0582828868
H 1.0124607975 2.7178575164 -1.0008256432
H -0.1458305125 0.4474063964 -2.1068481632
