17
Molecule 3786 / 7211 from QM7b dataset
C -1.1150087237 -2.8063387928 0.6484590149
O -0.1372420837 -1.8163808428 0.3665610949
C -0.7277808137 -0.5437182328 0.1796317649
C 0.3206736263 0.4954120172 -0.1291907651
C 1.6366410363 0.2547776372 -0.2243365351
O -0.3087205837 1.7041486572 -0.2909873351
C 0.5298161763 2.8200356272 -0.5902716251
H -0.5807783037 -3.7539917428 0.7923791249
H -1.8325804337 -2.9183339028 -0.1867899451
H -1.6819829437 -2.5674540828 1.5685439749
H -1.2841139937 -0.2296281628 1.0874819049
H -1.4617911837 -0.5673405628 -0.6526441851
H 1.9884499063 -0.7617929228 -0.0694857351
H 2.3641986563 1.0305677172 -0.4487876351
H -0.1378663837 3.6838859372 -0.6835485851
H 1.0718088563 2.6642727072 -1.5374298851
H 1.2563093563 2.9966629672 0.2199397649
