14
Molecule 2284 / 7211 from QM7b dataset
C -1.5949108082 0.0214406030 -0.1916548288
C -0.1075133982 -0.0206002070 0.0923594912
C 0.2714496918 0.0163967430 1.5589491012
C 0.7995066118 -0.7239761470 -0.8578383588
N 0.7148945518 0.7594129130 -0.8675990588
H -1.7797772482 0.0403517630 -1.2733730688
H -2.0482710782 0.9247383930 0.2455984712
H -2.1022403382 -0.8562571570 0.2375944012
H 1.3611183918 -0.0523933170 1.6943271112
H -0.1889383382 -0.8192933670 2.1086306012
H -0.0746003282 0.9517295530 2.0271183512
H 0.3867783418 -1.2072968370 -1.7474873788
H 1.6987330318 -1.1972277970 -0.4534447888
H 1.5317431218 1.1401924230 -0.3766627188
