15
Molecule 2997 / 7211 from QM7b dataset
C -1.0208921516 -1.7377035442 1.1875403745
O -1.0955944316 -0.4180266042 0.6290000045
C 0.0420531484 0.0387030058 0.0191937945
C -0.0861587016 1.3848653858 -0.5372628555
C -1.2453593316 2.0497517058 -0.6793350955
N 1.0936670884 -0.7137314842 0.0021701345
N 2.2424347184 -0.2254225542 -0.6277286555
H -2.0186247716 -1.9353338942 1.5952712245
H -0.2629363916 -1.7854360342 1.9828896145
H -0.7624090016 -2.4773209542 0.4153242945
H 0.8553967584 1.8675954458 -0.8096629555
H -2.1958093116 1.5924703558 -0.4034470655
H -1.2632438816 3.0679252058 -1.0685602155
H 2.8693444884 -1.0181982142 -0.7608196455
H 2.0524671384 0.1928898758 -1.5449029455
