16
Molecule 544 / 7211 from QM7b dataset
C -3.0133073932 0.6940305400 0.1707989209
C -1.7495597732 -0.0840986600 -0.2026736091
C -0.5517445232 0.8423028800 -0.3658236591
O 0.6316451068 0.1226874000 -0.8013858291
C 1.4201157468 -0.3682738100 0.2077803109
N 2.5226022468 -0.9876103000 -0.3310626791
O 1.2025185568 -0.2389777200 1.4022521509
H -3.8727256132 0.0188473000 0.2813359909
H -3.2715101032 1.4373452800 -0.5991201891
H -2.8861592132 1.2292610400 1.1237042709
H -1.9056469632 -0.6361628000 -1.1433955091
H -1.5175985132 -0.8252076500 0.5775843909
H -0.3241379932 1.3601113200 0.5768922009
H -0.7290855432 1.5849203200 -1.1574083791
H 2.4972609868 -1.2473747000 -1.3114091391
H 3.0450535768 -1.5819111500 0.3018327609
