15
Molecule 3472 / 7211 from QM7b dataset
C -2.4844605425 -0.0557540057 0.2449238657
C -1.0212184825 -0.2873832157 0.1445664557
C -0.2669787625 -1.3906300357 0.2544062557
C 1.1776600975 -1.0149122357 0.0571791357
C 1.0765748775 0.4819568043 -0.1816247043
C 2.0305805175 1.3873179643 -0.4243357443
O -0.2681136125 0.8612195943 -0.1152395243
H -3.0048572625 -0.9988486657 0.4484498657
H -2.8764165225 0.3717235243 -0.6901138943
H -2.7119803025 0.6569676843 1.0520054357
H -0.6390571425 -2.3911405157 0.4539354857
H 1.8038344975 -1.2397242257 0.9370683257
H 1.6426784275 -1.5281512157 -0.8012733643
H 3.0725317075 1.0790692543 -0.4735134843
H 1.7852292675 2.4367757543 -0.5753337643
