18
Molecule 3288 / 7211 from QM7b dataset
C -1.2483358547 -0.7749975078 -0.5145675512
C -1.2289138947 0.7888093822 -0.5260362912
C 0.0216056653 1.1114849222 0.3195490388
C -0.0157232747 -0.0047773978 1.3858621688
C 0.0036476053 -1.1242955478 0.3246897088
C 1.2497081753 -0.7245939078 -0.4978179612
N 1.2084120953 0.7761931022 -0.5146247512
H -1.1978747447 -1.2068880978 -1.5249236012
H -2.1596332047 -1.1616578278 -0.0337831212
H -2.1354075947 1.2084623422 -0.0652935212
H -1.1286233547 1.2079274422 -1.5358949712
H 0.0755719453 2.1491069822 0.6745249088
H -0.9289609947 -0.0089019978 2.0004608188
H 0.8683538953 -0.0022998378 2.0417426688
H 0.0318071853 -2.1582210878 0.6936764088
H 2.1757372453 -1.0975358878 -0.0299382012
H 1.2050959853 -1.1262764178 -1.5235923412
H 2.0431184353 1.1331530122 -0.0446804712
