16
Molecule 919 / 7211 from QM7b dataset
N -0.4851114643 -1.9746437262 0.9800576740
C -0.7998978843 -1.2883047562 -0.2895069460
C -0.3473910743 0.1537045038 -0.2472888960
C -1.2109799643 1.1635201538 -0.4280560660
C 1.1286470357 0.3637254738 0.0031511940
N 1.5399668357 1.7675064738 -0.0807234360
H -0.7190168143 -2.9669491262 0.9037647840
H -1.0780516143 -1.5933003662 1.7226921940
H -1.8711958443 -1.3156620162 -0.5686608660
H -0.2458469643 -1.8172830962 -1.0854810360
H -2.2697189843 0.9681685338 -0.6106374560
H -0.8801492143 2.2016051738 -0.3817708560
H 1.6800589357 -0.3138915262 -0.6854607260
H 1.3587133257 -0.0101081162 1.0140788240
H 1.5072940357 2.0831124638 -1.0538947760
H 2.5116568657 1.8583965938 0.2202345340
