14
Molecule 1966 / 7211 from QM7b dataset
N -0.5972078386 -1.2938172845 -0.8292922694
C -0.9689415186 -0.4062333745 0.1728030606
N -1.9438937586 -0.5322191745 1.0047963006
C -0.1465700086 0.8769424055 0.1873296606
C 1.3321167614 0.6323656055 0.3067805806
C 2.2421267614 0.9652877055 -0.6174406094
H 0.3642223414 -1.2239255445 -1.1579700694
H -0.9447265986 -2.2458304645 -0.7544137994
H -2.4297175586 -1.4321422045 0.8727172306
H -0.5163039786 1.4645168955 1.0389687306
H -0.3570533986 1.4414874255 -0.7358871594
H 1.6608317414 0.1362332655 1.2273145006
H 1.9537429014 1.4692460255 -1.5440650394
H 3.3043237614 0.7624957655 -0.4720287694
