12
Molecule 1133 / 7211 from QM7b dataset
C 0.3155625587 1.4760538847 0.3526338959
C 0.9178603187 0.3430524747 -0.3939639841
C 0.8427681087 -1.0525525953 0.2211672659
N -0.5981319913 -1.3112942453 0.4358340159
C -1.2279754113 -0.3103134753 -0.0550205841
N -0.4942406513 0.7540104647 -0.6799701941
H 0.5730248387 2.5021008647 0.0843568559
H 0.0388811387 1.3127368047 1.3979252459
H 1.6348680187 0.5502461047 -1.1901686841
H 1.3822563687 -1.1548941253 1.1759819559
H 1.2466872887 -1.8147211853 -0.4639361441
H -2.3184026013 -0.2319237353 -0.0441055441
