16
Molecule 2490 / 7211 from QM7b dataset
N -1.9212746226 -0.1081782082 0.2330087888
C -0.4799853226 -0.4248086582 0.1413184288
C -0.2288037026 -1.2352780382 -1.0556299212
C -0.0179378026 -1.9212799282 -2.0341925912
C 0.3158508974 0.8731178018 0.1123226188
C 0.6908189974 1.5312377018 1.4211845488
C 1.7529173574 0.8863986618 0.5591346788
H -2.0948453326 0.3607257718 1.1259016188
H -2.4650821226 -0.9743191482 0.2344798888
H -0.1068444326 -1.0156340082 1.0080778588
H 0.1729948274 -2.5174675382 -2.9029517012
H 0.0386890874 1.5307765418 -0.7140956412
H 0.4180843474 1.0200298018 2.3469756388
H 0.6558381074 2.6193781318 1.4779668488
H 2.4481367574 1.5312745518 0.0220983688
H 2.1847885774 -0.0538418882 0.9056590188
