11
Molecule 3210 / 7211 from QM7b dataset
N -2.3491555302 0.2986711266 0.0029878074
C -1.0177427402 0.1101716966 0.0014730274
C -0.2423620702 -1.0200923334 -0.0103637026
C 1.1281530898 -0.5515040634 -0.0058591626
O 2.2034513098 -1.1470614334 -0.0117859726
C 0.9740155798 0.9877489766 0.0097651274
N -0.2552279102 1.3589614066 0.0143684474
H -3.0026423602 -0.4743759334 -0.0080211426
H -2.6962023302 1.2527348566 0.0146647674
H -0.5585638602 -2.0572860434 -0.0202852426
H 1.8080989998 1.6940451966 0.0163438774
