14
Molecule 3071 / 7211 from QM7b dataset
C -1.9695393476 0.0938852238 1.2225598417
C -0.5225531776 0.0333989138 0.7710707317
O -0.3575641676 1.0984057838 -0.2248969383
N 0.9125195724 1.1968047938 -0.7982468983
C 1.5806638924 0.0827702938 -0.8885848783
C 1.0097587324 -1.2227248362 -0.6099960883
C -0.0991000476 -1.2680773462 0.1513599517
H -2.2095610276 1.0893540238 1.6165946517
H -2.1378625276 -0.6447319762 2.0189962317
H -2.6480646676 -0.1281438162 0.3874713217
H 0.1519856524 0.2883182938 1.6162023517
H 2.5634068224 0.1954471638 -1.3512916483
H 1.4302873824 -2.1001765162 -1.1030737483
H -0.6726956076 -2.1804604962 0.3235472817
