18
Molecule 4412 / 7211 from QM7b dataset
C -2.0021399107 0.3641148109 -1.3538222303
C -0.4828071307 0.2874959309 -1.1347913203
N -0.0933834607 -0.9404298391 -0.3832747403
C 0.3863696993 -0.5376388491 0.9668634397
C 1.6881585393 -1.2436168591 1.3499701097
C 0.4866049393 0.9690367909 0.8944902597
C 0.0286933993 1.4237347109 -0.2765022703
H -2.3443991407 -0.4944972791 -1.9476208003
H -2.2790881907 1.2885944109 -1.8833857003
H -2.5275828707 0.3472007309 -0.3881015803
H 0.0044225193 0.2853769209 -2.1272348703
H 0.6848521393 -1.3863499991 -0.8718473403
H -0.3768695007 -0.8121567091 1.7241187997
H 2.5026213393 -0.9585083091 0.6657491097
H 1.5598511493 -2.3355270991 1.3112106097
H 1.9924531593 -0.9786548191 2.3728654097
H 0.8496594093 1.5778008409 1.7241708097
H -0.0415130007 2.4709709709 -0.5742491903
