15
Molecule 3463 / 7211 from QM7b dataset
C -3.1709707683 -0.4552735885 0.0117177155
C -1.7033094583 -0.6405379285 -0.2195234745
C -0.7732720183 0.2243051815 0.2173504655
N 0.6092462817 0.0916465015 0.0374554855
N 1.0985518117 -1.0329767485 -0.6730636845
C 1.5108424217 1.0621655715 0.4066206355
O 2.7224901117 0.9696755015 0.2170587055
H -3.6020117683 -1.3069354285 0.5623616355
H -3.7188090583 -0.3907714585 -0.9421989945
H -3.3832066183 0.4583662615 0.5846218355
H -1.3806299183 -1.5103986285 -0.7959266445
H -1.0380890083 1.1189124515 0.7861446255
H 1.1025463517 -1.8242722785 -0.0146214945
H 2.0887822217 -0.7973854685 -0.8360665245
H 1.0171691917 1.9404368515 0.8714812555
