12
Molecule 1092 / 7211 from QM7b dataset
C -1.8447319000 -1.3629750150 0.3533154634
C -0.3747371500 -1.0202890350 0.1522198634
C -0.1064433600 0.4505007150 -0.0259739466
O -0.9537201800 1.3317953450 0.0002092534
C 1.3555490700 0.8831342150 -0.2598995966
O 2.2933919100 0.1125270750 -0.3027873766
H -1.9744953600 -2.4457204450 0.4778742134
H -2.4469477800 -1.0391226450 -0.5060438266
H -2.2499508200 -0.8611181150 1.2419699734
H 0.0605808500 -1.5380745550 -0.7205694066
H 0.2522670800 -1.3622250050 0.9949570634
H 1.4633522300 1.9894561250 -0.3855337366
