14
Molecule 2045 / 7211 from QM7b dataset
C -1.6849596902 -0.1948113723 0.4210448134
C -0.1598397402 -0.2755008823 0.3466684634
C 0.3457251098 -0.8309259323 -0.9632816066
C 1.2805483298 -1.7801427823 -1.0899200466
C 0.5079085998 1.0842548277 0.5615545034
O -0.0810288302 2.1408106677 0.6784289534
H -2.0054885802 0.2510617177 1.3717135434
H -2.1260300102 -1.1959768223 0.3304296434
H -2.0823054102 0.4356586177 -0.3862939366
H 0.2372441098 -0.9169322923 1.1569973934
H -0.0884036102 -0.3767579823 -1.8615378066
H 1.7340153898 -2.2571133023 -0.2173199766
H 1.6156827098 -2.1201799723 -2.0706726866
H 1.6272203898 1.0365115477 0.5928554334
