15
Molecule 3757 / 7211 from QM7b dataset
C -1.9558863542 -0.3299229423 0.7150388117
C -0.4896390442 0.0047696677 0.9076238517
C 0.6776337858 -0.8268103523 0.2671312617
O 1.5263461758 0.3764797077 0.4314858617
C 0.2748259158 1.0660728977 0.0397016417
C 0.0709929658 0.5393311677 -1.3912039583
C 0.3487358558 -0.7655951423 -1.2344740583
H -2.5893923342 0.4941399677 1.0759016417
H -2.2257264642 -1.2257393123 1.2940623217
H -2.1991466042 -0.5149809923 -0.3401186083
H -0.2542295342 0.1824944077 1.9683670117
H 1.0922333958 -1.7412271323 0.7077431717
H 0.2654956158 2.1438148477 0.2411678917
H -0.2163582042 1.1069198877 -2.2725381683
H 0.3563759758 -1.5843311123 -1.9493774583
