11
Molecule 1781 / 7211 from QM7b dataset
C -2.6050150184 -0.3132870047 0.0246761634
C -1.1504083584 -0.3131898947 0.0231369534
C 0.0663307216 -0.3171377947 0.0373830334
C 1.5255107916 -0.2830136547 0.0139937834
O 2.0727564216 1.0462573953 -0.0085036966
H -2.9965276984 0.7147124953 0.0466963334
H -3.0001952284 -0.8384719547 0.9068781734
H -3.0075523584 -0.8067416347 -0.8723314966
H 1.8923451516 -0.8725847047 -0.8480828766
H 1.9329588116 -0.7526346247 0.9227880334
H 1.5784111316 1.5454313553 -0.6830581966
