16
Molecule 1001 / 7211 from QM7b dataset
C -1.0500838445 1.5350263143 -0.5672319067
C -1.3178561345 0.1348057343 -1.0703262067
C 0.0979392755 0.5721130443 -0.7762600667
C 0.8877903855 0.0445067043 0.3865494833
C 0.2705613155 -0.7899335357 1.4842418033
C 1.2239802455 -1.4262650757 0.4985888033
H -1.1666016345 2.3694338343 -1.2594458967
H -1.3285815245 1.7535712043 0.4648562133
H -1.6015761245 0.0063175943 -2.1153024967
H -1.8050946745 -0.5617632157 -0.3868549367
H 0.7092649855 0.7643962043 -1.6635823667
H 1.6751300355 0.7273622843 0.7209762033
H -0.7841318945 -1.0580292857 1.4102828633
H 0.6174694955 -0.6218116357 2.5042342233
H 2.2180454155 -1.7116331657 0.8440683833
H 0.7920884655 -2.0893629357 -0.2526036467
