11
Molecule 1063 / 7211 from QM7b dataset
C -2.1902038890 -0.5844137186 0.3951075677
C -0.6923650890 -0.5055838886 0.4763810977
O 0.0646269310 -1.1318566286 -0.5796137123
C 0.0971258110 0.3059665714 -0.4845563023
C 1.3527447610 0.9079298214 -0.0920028023
N 2.3539365610 1.4204799114 0.2193341077
H -2.6468562990 0.1653598214 1.0569208777
H -2.5333412790 -1.5766793886 0.7198916477
H -2.5407292290 -0.4151879086 -0.6312437723
H -0.2464809490 -0.6456340486 1.4685822177
H -0.4309731790 0.8402424614 -1.2821573923
