17
Molecule 4169 / 7211 from QM7b dataset
C -0.0183403848 -2.9607213039 0.3166677310
O 0.4375017352 -1.7264344439 -0.2455555890
N -0.4330816048 -0.6967741239 0.1870079110
C -0.0576365248 0.4562903661 -0.2569494090
C 1.1546922352 0.7049700461 -1.1027385390
C -0.9530227748 1.6100329761 0.1248244810
N -0.1937048848 2.6253452861 0.8757270110
H 0.0151568252 -2.9315539239 1.4167792410
H 0.6736081952 -3.7258375939 -0.0574277390
H -1.0435673148 -3.1895516639 -0.0127458690
H 0.9969779352 0.3083722561 -2.1183645690
H 2.0289267352 0.1794148861 -0.6940674190
H 1.3649065552 1.7794097161 -1.1546745090
H -1.8353302048 1.2000849161 0.6483315710
H -1.3103834248 2.0891716761 -0.8038199590
H 0.0062866252 2.2729547561 1.8154506010
H -0.7632456848 3.4655798861 0.9950133210
