14
Molecule 1514 / 7211 from QM7b dataset
N -0.6160883425 -1.9292615253 1.5438312947
C -0.4186716525 -1.7271279653 0.0944011747
C 0.0450118075 -0.3507184353 -0.2056669353
C 1.1476515675 0.1488935747 -0.7788883853
O 1.0444572875 1.5311678247 -0.9414274753
C -0.0451042925 1.8702936847 -0.0719736253
O -0.8581883125 0.6956302347 0.0562146047
H -1.0246989425 -2.8539925853 1.7006901347
H -1.3077983525 -1.2529474253 1.8788445647
H -1.3309454625 -1.9149539153 -0.5105788853
H 0.3530425775 -2.4278367153 -0.2580550453
H 2.0341330775 -0.3330293453 -1.1736812553
H -0.6332251425 2.6834232747 -0.5159835753
H 0.3586342675 2.1417377647 0.9264145947
