17
Molecule 5583 / 7211 from QM7b dataset
C -2.3032147138 1.0523741317 -0.0066425763
N -1.1244091238 0.2362416117 0.2055084037
C 0.1394498562 0.7864255917 0.2880268237
N 0.4453680862 2.0397929617 0.3456607837
C 1.2544577962 -0.2509428583 0.3776097437
C 1.1846459562 -1.3004892083 -0.6952984663
C 0.9981847162 -2.6090388283 -0.4784608163
H -3.1791259338 0.3982722017 -0.0897696363
H -2.2350274838 1.6654401817 -0.9232815163
H -2.4691907538 1.7272912617 0.8475287137
H -1.1656656338 -0.7364549883 -0.0888888963
H -0.3950570038 2.6315775517 0.2939814337
H 1.2147709062 -0.7288679783 1.3702636237
H 2.1953363062 0.3132967817 0.3118856737
H 1.2898483762 -0.9390276583 -1.7249119363
H 0.8976424262 -3.0087150883 0.5344545837
H 0.9586143962 -3.3250272483 -1.3008546063
