14
Molecule 3383 / 7211 from QM7b dataset
C -2.1154978674 -1.3513104587 -0.4571731240
O -0.7710311574 -0.9219724187 -0.2138275340
C -0.5886437174 0.4118718813 -0.0172564140
C -1.5384141174 1.3697995313 -0.0202468240
N 0.7675241326 0.6959266413 0.2017387860
C 1.8339074526 -0.1816539087 0.2047528660
O 2.9857436726 0.1817489913 0.4062368660
H -2.0569848674 -2.4362708487 -0.5923135240
H -2.5176644474 -0.8813400687 -1.3678130440
H -2.7630607174 -1.1155333887 0.4013080060
H -2.5855527674 1.1423404313 -0.1856989640
H -1.2615960174 2.4075347313 0.1480121260
H 1.0086158426 1.6706096113 0.3756132160
H 1.5377634226 -1.2292818087 0.0089870060
