15
Molecule 3096 / 7211 from QM7b dataset
C -1.9371268153 -1.5742317319 -0.2463278848
C -0.4329954353 -1.3575193819 -0.0758051548
O 0.3229650847 -2.1664795219 -1.0043561848
C -0.0542725353 0.0909810281 -0.2039911648
C 0.5837797547 0.7934116581 0.7545651852
C 0.9492556347 2.1580422981 0.6475561152
C 1.2825063647 3.3280681281 0.5937545552
H -2.5027787253 -1.0326316719 0.5251448152
H -2.1722618753 -2.6447925319 -0.1736130448
H -2.2759284753 -1.2085165419 -1.2290512848
H -0.1185660653 -1.7247306519 0.9143542052
H 0.0372402547 -1.9277769419 -1.9054878648
H -0.3178284353 0.5864844281 -1.1458153548
H 0.8480571847 0.2939203781 1.6940234652
H 1.5714636547 4.3573677181 0.5367846352
