17
Molecule 5080 / 7211 from QM7b dataset
C -0.3630814039 -2.1107545435 -0.4621068593
C -0.9173094339 -0.8151185835 0.1372547107
C 0.0984876061 0.3226093965 0.1953728007
N 1.2890288061 0.1465971765 1.0120585707
C 0.3058545361 1.1534676565 -1.0514286693
C -0.4209851639 1.7404218865 0.1427502907
H -1.1314223339 -2.8964138535 -0.4891369493
H 0.4804365061 -2.5016203535 0.1276668207
H -0.0073840639 -1.9507752735 -1.4913272593
H -1.2907780139 -1.0078233835 1.1594214807
H -1.7903005339 -0.4845831435 -0.4497561793
H 1.0197105061 -0.0521047135 1.9808441307
H 1.8249551661 -0.6625272535 0.6858113307
H -0.2803291539 0.9033558365 -1.9370293293
H 1.3168052061 1.5118089365 -1.2440421393
H 0.1162399461 2.4805851565 0.7353988407
H -1.4989317139 1.8901629365 0.0666856207
