13
Molecule 2291 / 7211 from QM7b dataset
C -2.3572954775 0.1374727211 0.1507896283
C -0.8783339475 0.1365691811 -0.0625226917
N -0.2092992475 1.2344149611 0.0471399283
N 1.1902790025 1.1861361111 -0.1518046517
C 1.7554008625 0.0544569211 0.0971207983
O 1.1265102725 -1.1349377889 0.3075788083
C -0.1575575275 -1.1515948789 -0.3679698217
H -2.6290949275 -0.5125032889 0.9971937783
H -2.8815795075 -0.2546415289 -0.7359530917
H -2.7050043175 1.1574860811 0.3510295883
H 2.8411898725 -0.0130012589 0.1977983283
H -0.6894958275 -2.0316413489 0.0125805583
H 0.0117607825 -1.2714775189 -1.4551340417
