15
Molecule 3384 / 7211 from QM7b dataset
C -1.3654616280 -1.9834097080 -0.5457037810
C -0.7820523480 -1.4349019980 0.5254609990
C 0.3277278720 -0.4106315580 0.5069615290
C -0.0749579880 0.9261089220 1.0968587290
C 0.2670197220 1.9115930820 0.2333206290
C 0.8888900220 1.3198835820 -0.9549665010
C 0.9151043420 -0.0288197680 -0.8255256410
H -2.1730689880 -2.7078026380 -0.4322223710
H -1.0659733780 -1.7224139380 -1.5621735410
H -1.1239444980 -1.7241121680 1.5254607090
H 1.1561478820 -0.8057223480 1.1362875590
H -0.5614037180 1.0363459920 2.0644499290
H 0.1132143820 2.9799914820 0.3849607690
H 1.2733224020 1.8908615320 -1.8002883710
H 1.3240859520 -0.7460832380 -1.5349104610
