19
Molecule 7005 / 7211 from QM7b dataset
C -1.9759730630 0.4052340051 -0.0193319133
C -0.4697710030 0.3417515751 -0.2267112633
C -0.1107829130 0.3843604551 -1.7102600033
N 0.3125658470 1.4041900551 0.5165167967
C 1.2371402470 0.3540836351 1.0621088067
C 0.2986148070 -0.7743543249 0.5933410467
N 0.9153295070 -1.9517283449 0.0131486267
H -2.2333823730 0.3444754451 1.0497545667
H -2.4800905630 -0.4264062549 -0.5359174433
H -2.3896274030 1.3445543851 -0.4193722533
H 0.9787934670 0.3944159551 -1.8596743433
H -0.5083393630 1.3044580451 -2.1626729933
H -0.5294595930 -0.4788514649 -2.2505746833
H -0.2658691530 1.7724465851 1.2774636167
H 2.1983106570 0.3610919951 0.5199276667
H 1.4515573870 0.4163039551 2.1388606067
H -0.3461442830 -1.1080585549 1.4234775667
H 1.4381771870 -1.7103602949 -0.8324358833
H 0.2154381070 -2.6477538449 -0.2513744233
