14
Molecule 3871 / 7211 from QM7b dataset
O -2.9544974690 -0.0390123379 -0.3176717600
N -1.5735767990 0.1040954521 -0.5945527800
C -0.8692130690 -0.6377383479 0.1786404300
C 0.6168079610 -0.6477273779 0.0719590500
C 1.3313196110 0.3822050921 -0.8252756500
O 2.2232969510 0.7700778221 0.2642487900
C 1.4402975710 0.0046052721 1.2182126200
H -3.3529807790 0.5747415721 -0.9608057300
H -1.3502843290 -1.2765457579 0.9344272000
H 0.9623346410 -1.6761487779 -0.1178275000
H 0.6879370410 1.2161164421 -1.1452002000
H 1.8888390310 -0.0169022079 -1.6853346400
H 2.0683432910 -0.6664067679 1.8246161800
H 0.8451804010 0.6598856321 1.8781592100
