16
Molecule 799 / 7211 from QM7b dataset
C -1.8637000293 -1.7016880475 -0.4345738409
C -0.3916933893 -1.4258480175 -0.1513624009
C -0.0540257193 0.0539781625 -0.0009180109
O -0.9098750593 0.9240793325 -0.0804636309
C 1.4125613807 0.3859097825 0.2550891891
C 1.6955280807 1.8760982325 0.4042697691
H -2.0464112293 -2.7803879375 -0.5306176009
H -2.1839664793 -1.2113116475 -1.3635313309
H -2.4989702193 -1.3118257375 0.3717169891
H 0.2534976407 -1.8381373275 -0.9471982309
H -0.0600469693 -1.9369719875 0.7701001891
H 2.0018542207 -0.0518463575 -0.5701901909
H 1.7303032107 -0.1737471375 1.1527414391
H 1.3970954307 2.4249624625 -0.4987863809
H 2.7647311307 2.0537447825 0.5815864391
H 1.1288918007 2.3021855525 1.2428594891
