13
Molecule 6174 / 7211 from QM7b dataset
O -2.1097819488 -1.0240081957 -0.1311292923
C -0.9339786488 -1.3066514457 -0.2746302023
C 0.1339327212 -0.3297225957 -0.7024808223
C -0.2979704388 1.1436352543 -0.8998491523
C 0.4470097112 1.5690001443 0.4015107377
C 1.0134394812 0.1546784443 0.5078670177
O 1.8479891712 -0.3865699157 1.1874249577
H -0.5539551788 -2.3340000657 -0.0574990823
H 0.7568436712 -0.8003646157 -1.4793288723
H -1.3856492888 1.2761521143 -0.8746163223
H 0.1135992412 1.5960969243 -1.8089727923
H 1.2077150912 2.3584554743 0.3289500377
H -0.2188082688 1.8026462543 1.2465962377
