13
Molecule 3990 / 7211 from QM7b dataset
O -0.9018810498 -2.0323676492 -1.1374099591
C -0.5239719198 -1.6685432992 0.2077610909
C -0.0474329598 -0.2539925092 0.2201139209
C -0.8108855398 0.9032902108 0.1097972909
N 0.0644342402 1.9425432208 0.1513443309
N 1.3567543802 1.5571128308 0.2865516509
C 1.2838146002 0.2201118108 0.3230539609
H -1.2098282098 -2.9553293192 -1.1126787091
H 0.2856645302 -2.3237903692 0.5766978109
H -1.3856826198 -1.7865627892 0.8902834609
H -1.8798512698 1.0529938208 -0.0054213591
H -0.1479211798 2.9331125508 0.0942306309
H 2.1952017202 -0.3642723392 0.4265383809
