13
Molecule 2901 / 7211 from QM7b dataset
C -2.1484541644 -2.1105465103 0.2258552651
C -1.0368478844 -1.5187765503 -0.2137372049
O -0.8294844044 -0.1650065603 -0.0396909649
C 0.4705318556 0.2869574997 0.0441526851
C 1.5683268856 -0.4430320803 0.3096880051
C 0.5181243256 1.7614776997 -0.1839783249
O 1.5368773356 2.4288571397 -0.1571444649
H -2.3192070744 -3.1612560603 0.0023732251
H -2.8987277244 -1.5627986803 0.7948194051
H -0.2527391244 -2.0307149903 -0.7794713649
H 1.5429342156 -1.5082561403 0.5273782651
H 2.5222009956 0.0817932697 0.3242924651
H -0.4836908444 2.2139476197 -0.3865911149
