18
Molecule 5869 / 7211 from QM7b dataset
C -1.2193487519 -1.3923771148 -1.5645252067
C -0.9575173019 -1.2015617648 -0.0693092267
N -0.3838014019 0.1084077052 0.2588432733
C -1.3175785719 1.2180917352 0.3659896033
C 0.9893287081 0.2190531652 0.3401365433
C 1.5692181581 1.5872298152 0.6745469533
O 1.7276158181 -0.7551677648 0.1609234533
H -1.6735218319 -2.3770220548 -1.7464889467
H -0.2761436419 -1.3414861148 -2.1250588567
H -1.9056183319 -0.6304980648 -1.9623690767
H -0.2446229419 -1.9572308648 0.2841278233
H -1.8921139119 -1.3077588648 0.5053641633
H -2.0901513419 0.9953781452 1.1203473733
H -1.8253524219 1.4132166452 -0.5939585367
H -0.8027411819 2.1341925952 0.6669107433
H 1.3337527081 2.3331419452 -0.0981964467
H 2.6558251681 1.4699173952 0.7306542433
H 1.2017575581 1.9680224052 1.6383449733
