17
Molecule 4747 / 7211 from QM7b dataset
C -2.3924797922 -0.2173838224 -0.7112031925
C -0.8773208522 -0.2044705224 -0.7086976625
C -0.2114109522 1.0435352976 -0.1054928825
C 1.1099638078 0.5063041976 0.3991830675
C 2.1919677778 1.2033569376 0.7593843575
C 0.9766897278 -1.0073259624 0.3976983775
O -0.4011270722 -1.2854019424 0.1214431075
H -2.7701551222 -1.1738759424 -1.0962254525
H -2.7811204122 0.5883476876 -1.3494649625
H -2.7773183722 -0.0761772824 0.3092015675
H -0.4972572122 -0.3534114124 -1.7422615625
H -0.8208348422 1.4078869076 0.7395925575
H -0.0941132722 1.8672138076 -0.8233410125
H 3.0959003278 0.7075470076 1.1192736975
H 2.2123378878 2.2932337576 0.7100205175
H 1.6260781378 -1.4497510524 -0.3851643825
H 1.2310411578 -1.4718946924 1.3615917875
