16
Molecule 6573 / 7211 from QM7b dataset
C -2.0950312477 0.0348602204 1.1709785003
C -0.6215651077 -0.0084959096 0.7701796703
C -0.2395092877 1.1663691104 -0.1230070697
O 1.1693031423 1.1851833904 -0.4425895497
N 1.7135405723 -0.0176559896 -0.9261576497
C 1.0394794123 -1.1010737396 -0.7464548797
C -0.2527405877 -1.2802670496 0.0000068703
H -2.3267922377 0.9389624704 1.7530195103
H -2.3628877677 -0.8371774196 1.7854244403
H -2.7455816677 0.0288302804 0.2820852703
H 0.0051214123 0.0494571104 1.6763799903
H -0.4173388177 2.1366679604 0.3617539603
H -0.8157722777 1.1293704404 -1.0679437497
H 1.5384509923 -1.9810159796 -1.1651552797
H -1.0561444377 -1.5481699296 -0.7106588097
H -0.1520634277 -2.1431559196 0.6786960603
