17
Molecule 443 / 7211 from QM7b dataset
C -1.6584101670 -1.8688418762 0.7433379944
N -0.5242896070 -1.6779033462 0.1439212344
N -0.1163447270 -0.4394808062 -0.1505559656
C -0.7050397970 0.7860929938 0.4064544644
C 0.3902131930 1.8488666338 0.2032060244
C 1.3158118730 1.2483048638 -0.8730915656
C 1.2775024630 -0.2461283362 -0.5584401956
H -1.9418991170 -2.9048109462 0.9276784544
H -2.3460920170 -1.0706571962 1.0495320844
H -0.9543626370 0.6397885638 1.4748105144
H -1.6439185770 1.0340759938 -0.1196711656
H -0.0210887470 2.8257912238 -0.0835103956
H 0.9509975430 1.9866201038 1.1399992544
H 0.9045192730 1.4292544138 -1.8780840856
H 2.3316843930 1.6630779538 -0.8385867856
H 1.5076381530 -0.8906889962 -1.4172886656
H 1.9764966830 -0.5005277162 0.2627635744
