12
Molecule 1211 / 7211 from QM7b dataset
C -2.5037339027 -1.2231229943 -0.1828661005
N -1.0684519527 -1.2358136243 0.0520385695
C -0.3191959327 -0.0984943643 0.0610317795
C 1.0407906473 -0.0307577943 -0.0259510905
C 1.7302220173 1.1977417757 0.0671035795
N 2.3268803073 2.2062695157 0.1338349995
H -2.9591475627 -2.1168887143 0.2622720495
H -2.7626706127 -1.1902403243 -1.2550597405
H -2.9422296127 -0.3436829143 0.3064419495
H -0.5826225527 -2.1057922143 -0.1526975305
H -0.8956726627 0.8219294557 0.1845378995
H 1.6448475473 -0.9307162643 -0.1625186205
