13
Molecule 2171 / 7211 from QM7b dataset
O -2.8041234365 -0.5379084488 -0.1991775697
C -2.4686937165 0.6034677712 -0.4423986197
C -1.0916504765 1.1855648712 -0.1692138897
C -0.0758286565 0.2026386412 0.3066487403
C 1.2088125335 0.1620666612 -0.0924974397
C 2.1339615735 -0.8404437188 0.4522230003
O 3.3170697735 -0.9240267988 0.1523865703
H -3.1899438165 1.3370882012 -0.8845669797
H -1.2593985865 1.9672557912 0.5997956303
H -0.7567054265 1.7364742612 -1.0638797697
H -0.4265983165 -0.5390649188 1.0329964803
H 1.6174749835 0.8637508712 -0.8258893297
H 1.6719929235 -1.5497875788 1.1873012103
