15
Molecule 3522 / 7211 from QM7b dataset
C -3.0397335059 -0.3766199274 0.4245424102
C -1.5831381159 -0.6526787774 0.2394879702
N -0.7613286959 0.3284469826 0.0890103502
N 0.5734555541 0.0683946726 -0.0801271398
C 1.1464058041 -1.2681938374 -0.1028286798
C 1.3805861341 1.1880077626 -0.2339577598
O 2.5918126341 1.1509789826 -0.3954332698
H -3.3968671859 -0.7885116074 1.3816726402
H -3.6326867059 -0.8598755374 -0.3680340098
H -3.2320455959 0.7027499826 0.4064238202
H -1.2600147459 -1.7037235374 0.2386169302
H 0.7221870241 -1.8603392774 -0.9279019098
H 0.9615034041 -1.7879512574 0.8495414602
H 2.2244190841 -1.1434879374 -0.2530783798
H 0.7693937441 2.1123244026 -0.1894205098
