15
Molecule 746 / 7211 from QM7b dataset
C -1.8998231283 -1.1428145166 -0.0757389634
O -0.5190439683 -0.8850857866 0.1801964666
C -0.1232681583 0.4298284534 0.1652890366
C -0.9281592883 1.4899166134 -0.0228308634
C 1.3591788717 0.5166702134 0.4143418166
N 2.1145189717 -0.1818853166 -0.6420282834
H -2.0165650483 -2.2319449466 -0.0467811934
H -2.1940268583 -0.7611182866 -1.0671107734
H -2.5374998983 -0.6808222366 0.6960664666
H -2.0020123083 1.4075212834 -0.1754875834
H -0.4945871383 2.4873394734 -0.0301120634
H 1.5497035017 0.1238787734 1.4354032766
H 1.6465508417 1.5770254534 0.4102244866
H 1.8409341417 -1.1679976166 -0.6436754534
H 3.1106519317 -0.1616029666 -0.4122670734
