14
Molecule 6251 / 7211 from QM7b dataset
C -2.1083299541 -1.3272943791 -0.0782870653
C -0.6358341841 -1.0990133291 -0.1139389253
C 0.0375730259 0.0696799609 0.0097227247
C -0.5521135741 1.4331056709 0.2174214347
C 1.5103093359 -0.0158653091 -0.0707079153
O 2.2694355459 0.9411663509 0.0111031847
H -2.3671973941 -2.0346489391 0.7266735847
H -2.4455919441 -1.7993290091 -1.0156204453
H -2.6866756141 -0.4081044491 0.0723103047
H -0.0229604241 -1.9978661191 -0.2607245053
H -1.6475796541 1.4270624209 0.2067677447
H -0.1914482341 2.1224762709 -0.5596161153
H -0.2107701441 1.8521019509 1.1757593347
H 1.9071111459 -1.0546986191 -0.2196369053
