16
Molecule 4620 / 7211 from QM7b dataset
C -2.3957518716 -0.7858110497 0.4811783771
O -0.9791613616 -0.7079301597 0.4954293271
C -0.5096630416 0.4640482403 -0.1759129729
C 0.9969425484 0.4680831803 -0.2007035529
C 1.6534471884 -0.7504490897 -0.7864311829
C 1.6825048184 1.5278948503 0.2517846671
H -2.6740835516 -1.7096395397 1.0041300771
H -2.7912343516 -0.8219724897 -0.5523799029
H -2.8571948116 0.0754352703 1.0013752071
H -0.8913993016 1.3748742603 0.3251378371
H -0.8984848216 0.4667582503 -1.2182178729
H 1.3244957084 -0.9108130697 -1.8265203829
H 1.3625773084 -1.6495268297 -0.2234964129
H 2.7473262284 -0.6623447497 -0.7757018529
H 1.1740970384 2.3915390003 0.6851010571
H 2.7723135984 1.5665343903 0.1976456171
