20
Molecule 3616 / 7211 from QM7b dataset
C -2.5346839830 -0.0761566726 -0.6556178366
C -1.0262468930 0.0139838674 -0.8063187966
C -0.2563459630 1.1117366074 -0.0311723066
C 0.7808978370 0.0094405674 0.3382291834
C 1.1925839770 -0.0881249226 1.8031098734
C 2.0068152270 0.0249846074 -0.5804565666
N -0.2488132230 -1.0158640026 -0.0530381366
H -2.9259325230 -0.9853014826 -1.1368981466
H -3.0259893830 0.7906967374 -1.1240062766
H -2.8117065830 -0.1083113026 0.4080060934
H -0.7649545830 0.0466257474 -1.8820484866
H -0.8160561530 1.4679815974 0.8456979834
H 0.1145385070 1.9707763974 -0.6049928466
H 0.3044357170 -0.1216375526 2.4481911134
H 1.8126390870 0.7731183574 2.0967912034
H 1.7781725470 -1.0033102426 1.9830347234
H 1.7167065170 0.1078575574 -1.6386014566
H 2.5943209870 -0.8986332226 -0.4558171766
H 2.6675421070 0.8737687674 -0.3445293766
H 0.1198551070 -1.7777676626 -0.6302016966
