13
Molecule 2225 / 7211 from QM7b dataset
C -2.0891560146 -2.6429923658 -0.0383346646
C -0.7472854046 -2.5252602258 -0.0277378046
C -0.0406833546 -1.2959656758 -0.0208866746
C 0.6307292454 -0.2768743058 -0.0147305646
C 1.3485615754 0.9854759642 -0.0119111846
C 0.4223663454 2.1908938342 -0.2001830046
O 0.5881879754 3.2551421942 0.3562734854
H -2.5598456646 -3.6256038858 -0.0481282646
H -2.7384935246 -1.7669006458 -0.0381490346
H -0.1303949646 -3.4304386158 -0.0272833146
H 2.0679601054 1.0153252642 -0.8528986246
H 1.9329592154 1.1349227642 0.9092586554
H -0.4248833246 2.0198942142 -0.9102839146
