14
Molecule 3520 / 7211 from QM7b dataset
C -2.0751480896 -1.7512379301 0.0512733471
C -0.7347023396 -1.6451547001 -0.0305301829
C -0.0111405196 -0.3934192901 -0.0109231729
N 1.2872373404 -0.3877188801 -0.0748113229
O 1.7690784104 0.9123452399 -0.0226473729
C 0.6354654204 1.8536895599 -0.0642954629
C -0.6101187296 0.9898213399 0.1315413271
H -2.5629395396 -2.7251961801 0.0371586071
H -2.7211934996 -0.8754524001 0.1348081671
H -0.1112947896 -2.5387538501 -0.1142381329
H 0.6592972404 2.3497784299 -1.0462086829
H 0.8030560304 2.5954674299 0.7264631171
H -1.3867289696 1.1816463399 -0.6215713929
H -1.0696195896 1.1055865999 1.1260514271
