13
Molecule 1195 / 7211 from QM7b dataset
O -2.0380366518 -1.7059120218 -0.0345396656
C -0.8158353418 -1.6310019618 -0.0031977656
C -0.0594517918 -0.3736435218 0.0025565644
C 1.3030421182 -0.2868307718 0.0380211944
C 1.6973851982 1.1561576382 0.0321116044
C 0.3805586982 1.8808149782 -0.0113859056
C -0.6293516918 0.9805261682 -0.0281939956
H -0.1826774618 -2.5545819918 0.0245895344
H 2.0021640282 -1.1217606218 0.0661989944
H 2.3421969882 1.3997287382 -0.8322449256
H 2.2954797182 1.4198073682 0.9237134244
H 0.2871550382 2.9651699682 -0.0262870556
H -1.6981082318 1.1827975382 -0.0591228256
