17
Molecule 5628 / 7211 from QM7b dataset
O -1.0196360755 -2.1698401185 0.5164534302
C -1.3210591155 -1.2669478785 -0.5644080898
C -0.6985535555 0.0825067915 -0.2121800698
O -1.2348324955 0.5570535415 1.0283940402
C 0.8437428845 0.0253156615 -0.1837748998
C 1.4690518645 1.3648500015 0.0676292602
C 2.3963613845 1.9343207815 -0.7111687298
H -1.6143409355 -2.9337899285 0.4528326002
H -2.4115372955 -1.1373236685 -0.6700704098
H -0.9092307855 -1.6423525785 -1.5190538798
H -1.0154080455 0.8130912115 -0.9751945898
H -1.1976958455 -0.2089008585 1.6344895102
H 1.2102981245 -0.3881346485 -1.1382607798
H 1.1368466245 -0.6852697085 0.6090395602
H 1.1110190545 1.8940256615 0.9568034002
H 2.7745593045 1.4357530015 -1.6081948998
H 2.8139775945 2.9149219915 -0.4777550998
