12
Molecule 2624 / 7211 from QM7b dataset
C -2.1770311182 0.3779707157 -0.0713607478
C -0.6877998382 0.3752747157 -0.0112687778
C 0.1863552118 1.4070556957 -0.0313020378
O 1.4995538018 1.0317327357 0.0200830922
N 1.4589121318 -0.3809395443 0.1991636422
C 0.1279385818 -0.8456603443 0.0224868722
O -0.1822152482 -2.0309843343 -0.0425619478
H -2.5774230482 1.3984558157 -0.1152737678
H -2.6012397882 -0.1277740843 0.8081608822
H -2.5286560282 -0.1749735643 -0.9546330278
H 0.0444426718 2.4851527357 -0.0648085878
H 2.2150058218 -0.8081160043 -0.3390919978
