12
Molecule 4024 / 7211 from QM7b dataset
N -2.5034473655 0.2762064701 -0.2133559195
C -1.1066397655 0.2594528401 -0.0508426995
C -0.2442351055 1.3200133801 0.0287175105
O 1.0739053045 0.8536695101 0.0760571605
C 0.9968128645 -0.4911545299 0.0382032305
O 2.2069563245 -1.0983889999 0.0881940605
C -0.2966358455 -0.9348216599 -0.0424611695
H -2.9139228955 1.1799894601 0.0166716005
H -2.9665085255 -0.4498422499 0.3324274205
H -0.3606297455 2.3959851801 0.0378750105
H 2.0598162545 -2.0597259599 0.0624168205
H -0.6373294455 -1.9630359899 -0.1116104195
