17
Molecule 1135 / 7211 from QM7b dataset
C -1.9952364625 -1.8607906964 0.1603652700
O -1.2360098725 -0.8437803864 0.8248043800
N -0.5930762025 -0.0213073564 -0.1675102200
C -1.2693905425 1.2626430336 -0.3019305000
C 0.7872010575 -0.0294469164 0.0199337100
N 1.5352527175 0.9489910736 -0.3223845300
C 2.9677399775 0.7477672736 -0.2139060500
H -2.4870734425 -2.4239823964 0.9642540600
H -1.3441549025 -2.5308537364 -0.4232475300
H -2.7602067625 -1.4255966464 -0.5031283600
H -2.2958292625 1.0947298136 -0.6500470100
H -0.7153520425 1.8464815536 -1.0453852600
H -1.2816230725 1.8178349936 0.6502099600
H 1.1438216875 -0.9887337364 0.4359046300
H 3.4065051575 1.5506816636 0.3991731700
H 3.4315783175 0.8227578236 -1.2107571300
H 3.2532935175 -0.2278984264 0.2270771000
