15
Molecule 1742 / 7211 from QM7b dataset
C -0.8045560457 -2.1280782263 -1.1813655889
C -0.6000191957 -1.5831089363 0.2427760211
C -0.1288882457 -0.1634151263 0.2701690611
N -0.9020771357 0.9147837237 0.2671026311
C -0.0438082757 1.9951602037 0.2387002211
C 1.2678880743 1.5769587837 0.2247367811
N 1.2001196243 0.1947586937 0.2439892511
H -1.1679568057 -3.1651809363 -1.1529298489
H 0.1326477343 -2.1121621063 -1.7565330589
H -1.5415996857 -1.5180774763 -1.7208712989
H 0.1095169443 -2.2230017563 0.7924676911
H -1.5518002457 -1.6195596363 0.7914399111
H -0.4157766357 3.0159942537 0.2362559411
H 2.2122496343 2.1097059737 0.2139343411
H 1.9927237743 -0.4396154263 0.2484941711
