15
Molecule 1969 / 7211 from QM7b dataset
O -2.2836742657 -0.1313868170 0.2844436979
N -0.9538060857 0.0029276230 -0.2575968821
C -0.2809989957 1.1882001730 0.2759734379
C 1.1452806343 1.1783114130 -0.2760517321
C 1.8495801543 -0.1335081970 0.0958957279
N 1.0285637243 -1.3406996870 -0.0283770321
C -0.2404390757 -1.1995935170 -0.1399901721
H -2.8511785157 0.0897279030 -0.4777784321
H -0.8342367057 2.0799407630 -0.0517645921
H -0.2835881157 1.1658593230 1.3812488379
H 1.6987727543 2.0462852730 0.1130571279
H 1.1027650043 1.2811762030 -1.3715771721
H 2.2150199743 -0.0946064770 1.1373717379
H 2.7462117443 -0.2720663970 -0.5293865321
H -0.8882117857 -2.0812768370 -0.2098667321
