15
Molecule 5415 / 7211 from QM7b dataset
C -2.5740548103 -0.0557898590 -0.3789635480
C -1.0624968703 0.0313800910 -0.4370636380
C -0.3302668203 1.0880195110 0.4308438420
C 0.6805708897 -0.0446632090 0.7834885920
N -0.3337731203 -1.0356009790 0.3245229320
C 1.9038352997 -0.0043384190 -0.0230451280
N 2.8674025397 -0.0150342590 -0.6834307180
H -2.9375647303 -0.9428014490 -0.9183848880
H -3.0308074103 0.8297957610 -0.8456214780
H -2.9160745003 -0.1248567090 0.6634530120
H -0.7215956003 0.1036247910 -1.4869434680
H -0.9136356103 1.3773597710 1.3142118220
H 0.0714095897 1.9750666310 -0.0690420280
H 0.9629893197 -0.1501998890 1.8429741920
H 0.0443468797 -1.8011909290 -0.2398533780
