18
Molecule 5902 / 7211 from QM7b dataset
C -2.2251910392 0.9500897982 -0.5862042155
C -0.7119034292 0.8112327782 -0.6115934155
C 0.1312515808 1.7581876482 0.2679896745
O 0.8495555908 0.6436041382 0.8705666345
C -0.0593222992 -0.3136909518 0.2245186245
C 0.6884956108 -1.4127589418 -0.5005828755
N 1.3698427608 -2.2820078418 0.4658369045
H -2.7116936392 0.1118046382 -1.1071433355
H -2.5482399792 1.8777508682 -1.0821466155
H -2.6034012192 0.9702390982 0.4470935545
H -0.3422160792 0.7915758482 -1.6492181455
H -0.4585534292 2.3114020682 1.0219603145
H 0.8124592308 2.4552487382 -0.2454332755
H -0.7355681692 -0.7587161518 0.9786819045
H 1.3591411308 -0.9390468718 -1.2474256155
H -0.0517941592 -2.0155263718 -1.0555983455
H 2.0636490008 -1.7266698818 0.9746452245
H 1.8908907208 -3.0112021818 -0.0255738255
