15
Molecule 6669 / 7211 from QM7b dataset
C -2.0900508675 0.8041794040 -0.2755844736
C -0.5923766775 0.6631506940 -0.3877836436
O 0.1424652925 1.7058057740 0.3279498464
C 1.0654739325 0.7217471440 0.8650672464
C 0.1313494725 -0.4424150260 0.4429741964
C 0.6887327425 -1.5867503760 -0.2431127036
C 1.1642836925 -2.5339029160 -0.8368682636
H -2.5871639275 -0.0319111560 -0.7891813536
H -2.4206104875 1.7399315840 -0.7483514436
H -2.4057091375 0.8161890140 0.7771625164
H -0.2722200075 0.6319552740 -1.4457798336
H 2.0268797225 0.7194407740 0.3240240164
H 1.2358089325 0.8581885740 1.9429353964
H -0.5026658775 -0.7643685860 1.2841112364
H 1.5814846725 -3.3719252160 -1.3566734536
