11
Molecule 219 / 7211 from QM7b dataset
N -1.9849632280 -1.3616770718 0.0000000000
C -0.6139844980 -1.5156246418 0.0000000000
N 0.0784136720 -2.6088147218 0.0000000000
C 0.1068940420 -0.2648325918 0.0000000000
C 0.6639594920 0.8206297782 0.0000000000
C 1.4006521020 2.0576498982 0.0000000000
O 0.8780346820 3.1649102582 0.0000000000
H -2.4014361080 -0.4382689618 0.0000000000
H -2.5938936880 -2.1709668818 0.0000000000
H -0.5369073280 -3.4353880218 0.0000000000
H 2.5086797320 1.9318496982 0.0000000000
