15
Molecule 615 / 7211 from QM7b dataset
O -1.7624439123 -2.5128608190 0.7015818248
C -0.5531248023 -2.3957274390 -0.0736935352
C -0.0096879423 -1.0530097590 0.0443968748
C 0.4744837877 0.0617165110 0.1201316748
C 1.0288518377 1.3797973810 0.2128529248
C 1.0811378377 2.2756627910 -1.0212982952
C 0.1161130477 2.5953013110 0.0818689648
H -2.0832088323 -3.4250719790 0.5905912848
H -0.7510224123 -2.6137628090 -1.1410437752
H 0.2061150177 -3.1222658790 0.2741809748
H 1.8614652177 1.4880532410 0.9124490048
H 0.6828211877 1.8576419410 -1.9449945252
H 1.9666191477 2.9005928210 -1.1374036852
H 0.3310565477 3.4417593210 0.7342053548
H -0.9409371723 2.3934951210 -0.0861908852
