15
Molecule 6422 / 7211 from QM7b dataset
C -2.2059514505 -1.6159193659 -0.2881647834
C -0.7578249105 -1.4946850059 0.0729793166
C -0.0418744305 -0.3488006159 0.1002081566
C 1.4299955395 -0.1959986359 0.4504110466
N 1.7087900195 1.1833507941 -0.0113489334
N 0.5276718595 1.8714360041 -0.2069066834
C -0.4572880805 1.0145644341 -0.2058834934
H -2.3455994705 -2.3163438759 -1.1279753634
H -2.6517560305 -0.6552749659 -0.5757569534
H -2.7930041105 -2.0215548559 0.5524171966
H -0.2493864105 -2.4280263659 0.3366123766
H 2.0772620295 -0.9209637959 -0.0631231034
H 1.5941008795 -0.2904741459 1.5396567566
H 2.3736310295 1.7356673141 0.5270541366
H -1.4628210705 1.3584982441 -0.4383971834
