17
Molecule 3766 / 7211 from QM7b dataset
C -2.7196261396 -1.2126240892 0.1478363709
N -1.2589260796 -1.2326717992 0.0515521909
C -0.6812651796 0.1065483808 0.0735744509
C 0.8594911404 0.0434302908 0.1916231809
C 1.5371202304 -0.6239230192 -1.0196305691
C 1.3892242504 1.3937882508 0.3965334009
N 1.8057112904 2.4728380408 0.5506521809
H -3.1033168996 -2.2383000392 0.0637949309
H -3.2183925896 -0.5891096392 -0.6223433491
H -3.0144289296 -0.8260662392 1.1350062509
H -0.9958991796 -1.7025943792 -0.8174489191
H -1.0773929396 0.6287701808 0.9585250109
H -0.9500393896 0.7269019008 -0.8093820591
H 1.0937665304 -0.5410901692 1.0978438909
H 1.2775829104 -0.0995951092 -1.9502616391
H 1.2218859904 -1.6727016792 -1.0978760891
H 2.6290722104 -0.6106973992 -0.9129096391
