14
Molecule 2498 / 7211 from QM7b dataset
C -1.9286001302 -0.2834085197 0.4790423850
C -0.3895066702 -0.2790531297 0.4594918650
C 0.1557619398 -1.0338066897 -0.7764527150
O 1.5751775398 -1.0905661497 -0.8173781350
C 0.1566897998 1.0776770703 0.4796279750
C 0.6477029298 2.1888404803 0.4427409450
H -2.3095114602 0.2396438703 1.3652863150
H -2.3051114902 -1.3160282697 0.4977015250
H -2.3307895602 0.2187629503 -0.4120592350
H -0.0137097102 -0.8057279897 1.3547660850
H -0.2588676602 -0.5650106897 -1.6898484650
H -0.1920670102 -2.0769888397 -0.7390810950
H 1.8950370098 -0.1685064397 -0.7799442750
H 1.0613123498 3.1768893403 0.4355014950
