13
Molecule 7052 / 7211 from QM7b dataset
C -2.5551595965 -0.3490113300 0.0677226723
C -1.0647750265 -0.2430091200 0.0364984323
C -0.2861370265 0.8929728700 -0.0769493677
N 1.0145823735 0.4247200400 -0.0435840977
O 2.1571697035 1.2062768500 -0.2314997677
C 0.9899210135 -0.9370760200 0.0594170923
N -0.2603770365 -1.3676886700 0.1204856523
H -3.0263536465 0.6387812500 -0.0151345377
H -2.8941340065 -0.8171164800 1.0035119623
H -2.9171516565 -0.9760117000 -0.7602923177
H -0.5064727565 1.9487474400 -0.1840057077
H 2.4058308935 1.5043572700 0.6676779723
H 1.8983900035 -1.5314505700 0.0817969123
