13
Molecule 1404 / 7211 from QM7b dataset
O -2.3016227348 -0.0400496132 0.0097829405
C -1.0720673048 -0.0210273332 -0.0030124395
N -0.3208288948 1.1162527668 0.1892613205
C 1.1151906552 1.2492825868 -0.0861514595
C 1.7904519052 -0.0838784832 0.0663801605
C 1.0683857052 -1.2134670232 0.0078840205
N -0.3161907648 -1.1869416532 -0.1713621795
H -0.8863162848 1.9597682668 0.2154033905
H 1.5366540552 1.9793350268 0.6244258405
H 1.2886360652 1.6602390468 -1.1030113195
H 2.8692720352 -0.1222196032 0.1973321905
H 1.5129900252 -2.2049910632 0.0888345905
H -0.8608821648 -2.0423710432 -0.1371438995
