18
Molecule 4055 / 7211 from QM7b dataset
C -0.3179749037 -2.1869996187 -1.2014692958
C -0.5578649737 -1.1337726387 -0.1495400158
C -1.6160607637 -1.1850596887 0.6763938542
C 0.4597427463 -0.0409345887 -0.1146661058
C 0.2547971063 1.2315289013 -0.9424753758
C 0.2524852463 1.3035802313 0.5565006642
N 1.3030232463 2.0301612213 1.2411453642
H 0.6529386063 -2.6835539687 -1.0412848758
H -0.2764776837 -1.7347947087 -2.2052419558
H -1.1020805237 -2.9555542887 -1.1957309758
H -2.3512762837 -1.9881342887 0.5996335842
H -1.7825581537 -0.4342675087 1.4500259242
H 1.4972494963 -0.3952467487 -0.1154999658
H -0.6976727437 1.3460955213 -1.4617479558
H 1.1182943763 1.6371676113 -1.4742934358
H -0.7266297137 1.4646623813 1.0140507642
H 2.1542306563 2.0413854913 0.6747416942
H 1.5420724963 1.5610563713 2.1188672942
