12
Molecule 3697 / 7211 from QM7b dataset
C -0.6198196404 -2.6171394466 0.3131404932
C -1.0936282004 -1.3789718566 0.0924694932
C -0.2973855904 -0.1658560566 -0.0045148468
C -0.7427026904 1.1146117434 -0.2291191868
O 0.2825006296 1.9904314634 -0.2562922668
N 1.4864138496 1.2773005734 -0.0406901368
C 1.1195811496 0.0230215134 0.1032746532
H -1.2942477904 -3.4705752066 0.3705209932
H 0.4446744496 -2.8204423166 0.4425822932
H -2.1723417304 -1.2430458066 -0.0288668168
H -1.7318727004 1.5367017934 -0.3830687368
H 1.8926156196 -0.7211895666 0.2824977232
