13
Molecule 2608 / 7211 from QM7b dataset
C -0.7358703300 1.7062110745 -0.8002958950
N -1.5565807200 0.4897447645 -0.6186215750
C -0.0801968200 0.3751342845 -0.6958727350
C 0.6421842100 -0.0584956055 0.5521824150
C 0.3139219200 -1.3324307055 1.2138052950
O 1.5059336200 -1.2093508055 0.4128352950
H -0.7288655700 2.2106639945 -1.7695925450
H -0.7257462600 2.3728572145 0.0661647150
H -1.9683945500 0.2144128145 -1.5160275050
H 0.3536492900 -0.0404240255 -1.6109344650
H 1.0741986300 0.7421062545 1.1657923650
H -0.4797757400 -1.9508805155 0.7836069150
H 0.4832964000 -1.4446569355 2.2897447050
