14
Molecule 1797 / 7211 from QM7b dataset
C -2.0737457057 -1.4787009375 0.7097743032
C -0.8226198457 -1.3354589875 0.2400511832
N -0.1784715357 -0.1225001575 0.0612660832
C -0.5937049557 1.2726464925 0.2973960632
C 0.8048731143 1.7161746025 -0.2124297768
C 1.0969808643 0.2140990325 -0.4069865968
O 2.0203020543 -0.4696442975 -0.7972326268
H -2.5018114557 -2.4725081675 0.8181604732
H -2.6898286157 -0.6247056575 0.9923297432
H -0.2005012757 -2.1864564175 -0.0445969468
H -0.8026576157 1.4870103025 1.3558344632
H -1.4456895957 1.5804663725 -0.3264982468
H 0.8084203443 2.2954284925 -1.1439821968
H 1.4482517043 2.2028593425 0.5309200832
