17
Molecule 1753 / 7211 from QM7b dataset
C 1.2333938926 -3.0964853200 0.1618412864
C -0.0008981774 -2.3184614300 -0.3210207136
C -0.2506951674 -1.0643868900 0.4631505164
C -0.2630193874 0.1698760900 -0.0711185436
N -0.5176617174 1.3458684200 0.6314668764
C -0.4149296974 2.6403356000 0.1364619764
N -0.0429171074 3.0655892400 -1.0162093936
H 1.3696994626 -4.0199211700 -0.4192804436
H 1.1347352526 -3.3789401900 1.2207988364
H 2.1444583626 -2.4890582700 0.0617215964
H -0.8842335074 -2.9788026100 -0.2503668136
H 0.1095254226 -2.0682653000 -1.3888397036
H -0.4217591074 -1.1808334300 1.5404588264
H -0.0862985174 0.3139218900 -1.1392841136
H -0.7845408974 1.2542756600 1.6082186564
H -0.7170037774 3.3805456400 0.8901925864
H 0.2363603026 2.3016058600 -1.6463089436
