16
Molecule 5671 / 7211 from QM7b dataset
C -1.9955847170 0.4784772335 -0.4954166091
C -0.4776720270 0.4177344735 -0.5174847391
C 0.3244416430 1.3944861635 0.3650852009
O 1.1493434530 0.3144957535 0.8887365609
C 0.2418918030 -0.6791936465 0.3063444209
C 0.9715735130 -1.7963118265 -0.4030275091
H -2.4375555470 -0.3811037965 -1.0215489791
H -2.3664059470 1.3904284535 -0.9869424891
H -2.3760656270 0.4745414835 0.5374514909
H -0.1026364570 0.4238979435 -1.5532691391
H -0.2792458270 1.8648836735 1.1639201009
H 0.9291953430 2.1649709435 -0.1379253591
H -0.4172439570 -1.0900398265 1.0977329609
H 1.6193472230 -1.3974751165 -1.1967223891
H 0.2514037930 -2.4980162065 -0.8509107991
H 1.5965580930 -2.3592079665 0.3053175309
