14
Molecule 1214 / 7211 from QM7b dataset
C -1.9724256914 -2.1501785529 -1.4345957530
N -0.6516413214 -1.6727158629 -1.0589699830
C -0.4474586614 -0.5652366929 -0.3034505230
C 0.7364106186 0.0676924771 -0.0673732530
C 0.7449105586 1.2280122571 0.8248357670
O 1.9816322486 1.8236189171 1.0167483370
O -0.2244152814 1.7028921971 1.3940891470
H -1.9698228814 -3.2458410029 -1.5089147530
H -2.3164547914 -1.7306338529 -2.3951846830
H -2.6910109414 -1.8654063029 -0.6558478830
H 0.1367956586 -2.0351458529 -1.5890129330
H -1.3386308914 -0.1600691329 0.1863467070
H 1.6620993286 -0.2809595129 -0.5332727130
H 2.6521570886 1.3332408571 0.5054788370
