15
Molecule 4842 / 7211 from QM7b dataset
N -0.5282297581 -1.9624323024 -1.6383376253
C -0.4935297281 -1.5389390024 -0.2335901253
C 0.4385364619 -0.3275127224 -0.0590087553
C 0.5455717219 0.1844014776 1.3865328447
O 0.2870787919 1.6268994876 1.3252738047
N -0.1377650181 1.9598784976 0.0271880947
C -0.0615005281 0.9262130076 -0.7308887753
H -1.2687308681 -2.6518506924 -1.7799739753
H 0.3486479419 -2.4270702324 -1.8883588853
H -0.1734862481 -2.3304838024 0.4744749947
H -1.5130604081 -1.2413917324 0.0597399447
H 1.4301632819 -0.5945257724 -0.4697211953
H 1.5368213719 0.0463510576 1.8379137747
H -0.2192270281 -0.2674895924 2.0411091747
H -0.3502625081 1.0041649376 -1.7775986853
