15
Molecule 843 / 7211 from QM7b dataset
C -1.7176093783 -0.0156394609 -0.0137234677
C -0.2398952683 0.0068252491 -0.3601726277
O -0.1429611183 0.0433403491 -1.7769773577
C 0.5817331517 1.0508441291 0.4570578923
N 0.9038012417 -0.0275098009 1.4289722423
C 0.6013466917 -1.0614717209 0.4039960823
H -1.8474489783 -0.0442983309 1.0759322423
H -2.1962919183 -0.9011780609 -0.4554256277
H -2.2128809283 0.8819650491 -0.4104981177
H 0.8018933917 0.0579732691 -2.0116410477
H 0.0483959217 1.9175198991 0.8787728723
H 1.4470497917 1.4085735591 -0.1357041077
H 1.8657017417 -0.0272235709 1.7727300423
H 1.4727999817 -1.3729376809 -0.2055484877
H 0.0844100717 -1.9578975009 0.7814481223
