13
Molecule 2811 / 7211 from QM7b dataset
C -2.0798348323 0.4939363001 -0.0136505625
C -0.5891470223 0.4195433001 0.0142740675
N 0.1440330277 1.5184492201 0.0909333575
O 1.4785340777 1.0948482801 0.0832607575
C 1.5044201677 -0.2661072399 0.0139887675
C 0.2278627077 -0.7584451199 -0.0346299825
N -0.2387571923 -2.0713436699 -0.2074877425
H -2.4008735823 1.5421406801 -0.0081792025
H -2.5233389823 -0.0055914699 0.8616933675
H -2.4788880323 0.0060650101 -0.9152135525
H 2.4880998377 -0.7244459499 -0.0007102125
H 0.4597377477 -2.7791180599 0.0115466175
H -1.0897465823 -2.2611387499 0.3207638775
