13
Molecule 3112 / 7211 from QM7b dataset
C -2.1996294550 -0.8219660963 -0.0031074897
C -0.6716741450 -0.8083439063 -0.0066477497
C -0.1025248950 0.6251891537 0.0066543403
C 1.3541477450 0.6726061437 0.0036071503
C 2.5683879450 0.6860004237 0.0008128803
H -2.5864974950 -1.8504891963 -0.0126517297
H -2.6069150650 -0.3045499663 -0.8852368697
H -2.6026419050 -0.3226372663 0.8913224203
H -0.2873246550 -1.3336308963 -0.8946899197
H -0.2830895250 -1.3516573763 0.8686148503
H -0.4802105850 1.1610987437 0.8948176103
H -0.4844788550 1.1791491937 -0.8685157997
H 3.6389149150 0.7018024537 -0.0015753497
