17
Molecule 691 / 7211 from QM7b dataset
N -1.9646752346 -0.1570078450 -0.9249742864
C -0.5010665746 -0.1720007850 -0.9092347864
C 0.0825197954 -1.3220941250 -0.0263223764
C 0.9182679854 -0.4630135150 0.9406861036
C 1.5981833654 0.5665497550 0.0003461236
C 0.1184764454 1.0124630850 -0.1281220564
N -0.1181608746 0.5860754250 1.3124581736
H -2.3132213946 -1.0503545750 -1.2813942364
H -2.2985911646 0.5582397250 -1.5766429364
H -0.0496351546 -0.1988362550 -1.9218201164
H 0.6863200954 -2.0432664750 -0.5940986664
H -0.7198831046 -1.8464201950 0.5104787136
H 1.4470468654 -0.9726240050 1.7570518036
H 2.1370309054 0.2118238950 -0.8962492664
H 2.2044162654 1.2981920750 0.5524459336
H -0.1829374046 2.0274845650 -0.4210122264
H 0.3710207554 1.2808616950 1.8947357436
