19
Molecule 4275 / 7211 from QM7b dataset
C -3.0775960437 -0.9010678164 0.6031131358
C -1.5777938037 -0.8791184064 0.8741728758
N -0.9042162137 0.1222457936 0.0379060758
C 0.5164383763 0.2017850436 0.2572134258
C 1.3999916863 -0.7417163464 -0.5426545442
C 1.3976078963 0.7265418936 -0.8639815342
N 2.5971192063 1.5100338036 -0.6547500142
H -3.5717957037 -1.6758669864 1.2058668958
H -3.2776398837 -1.1022113264 -0.4587772642
H -3.5426196737 0.0639903436 0.8592188158
H -1.1368510037 -1.8597769364 0.6301169658
H -1.3957703837 -0.7156231864 1.9592890658
H -1.3320365237 1.0394330136 0.1976580258
H 0.8741439463 0.4211339736 1.2776033158
H 0.9026936163 -1.4143538064 -1.2419677742
H 2.2816315463 -1.1548969464 -0.0485073842
H 0.8551693663 1.0014486536 -1.7726853342
H 3.1821835163 1.0834156136 0.0664158758
H 2.3586815663 2.4488042036 -0.3235037942
