16
Molecule 1413 / 7211 from QM7b dataset
C -2.2338014378 -1.6786303915 1.1170873608
C -1.4614721878 -1.2622690515 0.1070413608
C -0.7683664578 0.0667592885 0.0385791608
C 0.7709846622 -0.0667882215 -0.0342025092
C 1.4636863322 1.2622631885 -0.1065480392
C 2.2293681022 1.6786101685 -1.1216626592
H -2.7057602578 -2.6622567715 1.1089431408
H -2.4227853578 -1.0437732015 1.9871279308
H -1.2964814778 -1.9329952615 -0.7454064192
H -1.0484107278 0.6788503885 0.9118537708
H -1.1078668178 0.6154724685 -0.8574021092
H 1.0504713422 -0.6806924215 -0.9063971492
H 1.1111132422 -0.6135400115 0.8627199808
H 1.3036754522 1.9332440185 0.7466351708
H 2.4129176722 1.0434807285 -1.9926833992
H 2.7007328522 2.6625401785 -1.1171589692
