16
Molecule 3567 / 7211 from QM7b dataset
C -2.6916439159 -2.1254673064 -0.6621318254
O -1.3457653359 -1.9257291264 -0.2136840554
N -1.0440116759 -0.5554928864 -0.2918085554
C 0.1680743241 -0.3318052964 0.1049133346
C 0.6867037841 1.0152418236 0.1058867146
C 1.9388044341 1.3258745936 0.5036882246
C 2.5153101041 2.7037082536 0.5197897546
H -2.8674608059 -3.2048111764 -0.5782533754
H -2.8085630859 -1.8052526064 -1.7085038454
H -3.4030342059 -1.5775696264 -0.0258978954
H 0.8074500941 -1.1604153664 0.4420626046
H 0.0045210741 1.7984427236 -0.2395574854
H 2.5944467341 0.5152615836 0.8433458046
H 1.7926738741 3.4512936836 0.1657627846
H 3.4143528541 2.7646368836 -0.1151388254
H 2.8363255041 2.9873847136 1.5354353446
