15
Molecule 2056 / 7211 from QM7b dataset
C -1.6697580481 -0.7457226568 0.2858059370
C -0.1342348681 -0.7081945068 0.3293156270
C 0.4898522019 -1.6277041668 -0.7319224330
C 0.4108421219 0.7255780632 0.2430016270
N 0.1387611119 1.4005969832 -0.9206892630
O 1.0520939019 1.2431502432 1.1558036470
H -2.1082022781 -0.0788593068 1.0412066770
H -2.0290687881 -1.7662727168 0.4833461070
H -2.0608655281 -0.4456617368 -0.6989813930
H 0.1955035419 -1.0471145468 1.3227202370
H 0.1702148519 -1.3568631068 -1.7503849130
H 0.1818427219 -2.6692082568 -0.5585450330
H 1.5875898619 -1.5882349268 -0.7003567430
H -0.3876019081 0.9885774332 -1.6818577030
H 0.4823000819 2.3505159432 -1.0159561230
