22
Molecule 4188 / 7211 from QM7b dataset
C -0.7127990905 -2.3850792127 -0.2554665241
C -1.3741114305 -1.0089047827 -0.1430017441
C -0.6463043705 0.1283502773 -0.8875527341
C -1.4483198005 1.4334500073 -0.8076602741
C 0.8069101295 0.3306843773 -0.4205702741
N 0.9111049995 0.6841260173 0.9971022959
C 2.2913669495 0.9288411073 1.4081888259
H -1.3188605305 -3.1559686427 0.2419469359
H 0.2865047595 -2.4066209527 0.2048698159
H -0.5947091205 -2.6840446627 -1.3087279541
H -1.4942799905 -0.7330545127 0.9200299159
H -2.4007538505 -1.0705134727 -0.5414943441
H -0.5794879105 -0.1715829327 -1.9505785741
H -1.4914083105 1.7998811473 0.2278736859
H -2.4774822405 1.2883342973 -1.1685320141
H -0.9842944605 2.2214627973 -1.4197000641
H 1.2447976195 1.1640827973 -0.9977842541
H 1.4113638095 -0.5684763027 -0.6772379141
H 0.5312669095 -0.0805191827 1.5604358659
H 2.6686796195 1.8318930373 0.9027755359
H 2.9919212695 0.0984379273 1.1717925559
H 2.3285531095 1.1137558973 2.4909910859
