20
Molecule 4422 / 7211 from QM7b dataset
C -2.7981306117 -0.8010962139 -1.1928866484
N -1.3540932417 -0.7178857339 -0.9893933684
C -1.0002840717 0.0099002561 0.2367973916
C 0.4979459583 0.0724998561 0.4362041916
C 1.1702562383 -1.2556256339 0.6609125416
C 1.1234506683 1.2652991461 0.4036181616
C 2.5835522783 1.5504134461 0.5872022016
H -3.0077387817 -1.2807089339 -2.1590341084
H -3.3198265917 0.1799077261 -1.1697015184
H -3.2425310717 -1.4301262839 -0.4055431984
H -0.9267327817 -0.2308893139 -1.7819864084
H -1.4609577917 -0.5402692139 1.0794550816
H -1.4225202817 1.0385469661 0.2623233116
H 0.8593807383 -1.6837360439 1.6290376516
H 2.2649014183 -1.1918460639 0.6562360416
H 0.8549326283 -1.9700656539 -0.1140241384
H 0.4962576183 2.1488722061 0.2314119016
H 3.1780987883 0.6472649261 0.7728372416
H 2.7437929583 2.2370944061 1.4343214116
H 3.0008530883 2.0528102761 -0.3006667284
