21
Molecule 6981 / 7211 from QM7b dataset
C -0.9484052108 -2.3465451967 -1.4405291233
C -0.7336543008 -1.7929149567 -0.0296166133
C 0.1310130992 -0.5390302167 0.0007274167
C -0.4416856008 0.7831436433 -0.5926003633
C 0.1620573192 1.5637601033 0.6144339567
C 1.4806134192 2.2672725733 0.3084931167
C 0.3219856892 0.2015859733 1.3547508767
H -1.5844838008 -3.2434186567 -1.4303697133
H 0.0096491192 -2.6213998367 -1.9086380533
H -1.4326838608 -1.6020452967 -2.0908201533
H -0.2693914708 -2.5667531967 0.6067867767
H -1.7106310908 -1.5618932167 0.4320972167
H 1.1114340192 -0.7634393167 -0.4532161933
H -1.5431446908 0.7851668333 -0.5745791433
H -0.1063621808 1.0840385633 -1.5964326033
H -0.5291251708 2.2722829133 1.0966906567
H 2.1974289692 1.5852192733 -0.1755910733
H 1.9508936192 2.6453078233 1.2293605067
H 1.3269986792 3.1228926533 -0.3670399833
H 1.2648642192 0.0366360633 1.8977536267
H -0.5169928408 0.0037738633 2.0400425267
