17
Molecule 5145 / 7211 from QM7b dataset
C -1.1071016511 -2.0928108869 1.1505095510
C -0.5676594811 -1.6798599769 -0.2291698690
C -0.0053862411 -0.2869537369 -0.2489056690
C 1.2967016889 0.0841179631 -0.3745180390
C 1.4038383989 1.5804068631 -0.3222384090
C -0.0200833811 2.0269571431 -0.1503399790
C -0.8188171111 0.9334438531 -0.1071972390
H -1.5117706311 -3.1148699569 1.1256351110
H -1.9109868811 -1.4204170969 1.4842973010
H -0.3092777511 -2.0571732269 1.9063168810
H -1.3824166511 -1.7525476069 -0.9709352190
H 0.2103321589 -2.3898048569 -0.5502372390
H 2.1473523589 -0.5854825569 -0.4980791290
H 1.8575629889 1.9987397831 -1.2397576390
H 2.0463909389 1.9249594631 0.5090253210
H -0.3318626911 3.0677041031 -0.0799186290
H -1.9042771711 0.9370846231 0.0048111610
