14
Molecule 3131 / 7211 from QM7b dataset
C -3.6493100098 -0.5931689266 -0.0004748078
C -2.1942075598 -0.5972646566 -0.0004670878
C -0.9785368298 -0.6160853966 -0.0004414278
C 0.4779994202 -0.6120938066 -0.0004403678
C 1.0509871902 0.8299744334 0.0006827922
C 2.5098576802 0.8430093534 0.0006188722
N 3.6762711102 0.8279851934 0.0005560322
H -4.0427331698 0.4340582834 0.0111313922
H -4.0472345098 -1.1144118766 0.8827052722
H -4.0472834798 -1.0944094666 -0.8951337378
H 0.8607460802 -1.1486127966 -0.8831348178
H 0.8607634102 -1.1499978666 0.8814033922
H 0.6905980002 1.3749240434 0.8857856122
H 0.6905065502 1.3763273234 -0.8835171778
