15
Molecule 1470 / 7211 from QM7b dataset
C -3.5105254796 -0.8559889976 -0.0806949113
C -2.0411591696 -0.9922340176 0.1324479087
C -1.1232342696 -0.0320176676 -0.1123743013
C 0.2866846404 -0.2338611776 0.1174750287
N 1.1453090504 0.7084227224 -0.1281706613
N 2.4557564504 0.2876740124 0.1690118087
C 3.3195060604 1.2093332924 -0.0709735613
H -3.8765773496 -1.6200974676 -0.7855278213
H -3.7792504496 0.1344417024 -0.4709257313
H -4.0596607596 -1.0209846576 0.8605671687
H -1.6883895196 -1.9555697876 0.5200123987
H -1.4242186396 0.9461768924 -0.4995181413
H 0.6308547004 -1.2058494776 0.5068581887
H 4.3693924604 0.9813755324 0.1278667287
H 3.0327603604 2.1964415324 -0.4605018013
