15
Molecule 3714 / 7211 from QM7b dataset
O -1.8370778286 -0.6464422701 0.4362246703
C -0.6082349686 -0.0704980601 0.8215703303
C 0.6879892814 -0.8001748901 0.3459992203
C 1.3874873714 0.5808934699 0.6029569203
C 0.0427948614 1.1266549799 0.0119836003
C 0.0983253814 0.5230603599 -1.3944642997
C 0.5164625014 -0.7358168001 -1.1787318597
H -2.5471970186 -0.1974742501 0.9248638703
H -0.5868204586 0.1280458799 1.9085649703
H 1.0299950214 -1.7349708201 0.8056351403
H 1.5398369814 0.8147800799 1.6681847503
H 2.2906589914 0.7818504399 0.0133520203
H -0.2770251986 2.1684564299 0.1376145503
H -0.1792620586 1.0160813199 -2.3229196297
H 0.6774898014 -1.5499452701 -1.8809765097
