14
Molecule 7020 / 7211 from QM7b dataset
C -2.4324365305 -0.1055148425 -0.0024433758
C -0.9433313605 0.0584293475 0.0990341642
C -0.2653553305 1.1945467675 -0.1599802758
C 1.2189428095 1.1412533675 0.0278074042
O 1.7482077495 -0.1254818725 -0.4511682958
N 1.1233329095 -1.2585997525 0.0845041142
C -0.1273801605 -1.1148985325 0.4079525842
H -2.7020847405 -0.8519477625 -0.7653290358
H -2.9179701605 0.8435212875 -0.2627518458
H -2.8529109605 -0.4567873525 0.9530629142
H -0.7564827705 2.1138371975 -0.4859424858
H 1.7550665295 1.8976928675 -0.5593754758
H 1.5038620695 1.2504887875 1.0948121742
H -0.5811088905 -2.0256484225 0.8091183142
