16
Molecule 3337 / 7211 from QM7b dataset
C -1.7444419001 -0.0185908814 0.3115964723
C -0.2540221501 -0.0011247214 -0.0577574477
C 0.5592315199 1.0485681786 0.7763930223
N 0.8837012199 -0.0193799414 1.7580709723
C 0.5762808299 -1.0622946314 0.7445207423
C -0.0516672901 0.0221812286 -1.4952744177
C 0.1108847099 0.0412149986 -2.6995546377
H -1.8548187601 -0.0358528914 1.4045288023
H -2.2362385001 -0.9063325814 -0.1101288877
H -2.2503656601 0.8735076386 -0.0833887977
H -0.0169400901 1.8930538586 1.1867723623
H 1.4218827899 1.4306924686 0.2040116323
H 1.8528705999 -0.0164505414 2.0816285123
H 1.4448952599 -1.4128605514 0.1610467623
H 0.0139390899 -1.9280522114 1.1289769423
H 0.2612724199 0.0582293686 -3.7594865377
