15
Molecule 6028 / 7211 from QM7b dataset
C -2.4019550763 -0.0159282333 -0.0345579906
C -0.9059547863 0.0818344967 0.0354550394
C -0.1908187163 1.2137457667 0.2828477694
C 1.2298762037 1.2168625167 -0.0085764106
C 1.8771392137 0.0410897767 -0.1538943306
C 1.0915721337 -1.1947744133 0.1672039394
O -0.2868120663 -1.0912135933 -0.2995840806
H -2.6990204163 -1.0366975633 -0.3026878006
H -2.8179327963 0.6815720267 -0.7748852606
H -2.8498039963 0.2254002767 0.9403961494
H -0.7200834963 2.1349895067 0.5224179994
H 1.7327911337 2.1696821767 -0.1866278506
H 2.9148199937 -0.0352212633 -0.4776521806
H 1.4866078237 -2.0958131933 -0.3181614306
H 1.0479644537 -1.3711826833 1.2630049194
