17
Molecule 7061 / 7211 from QM7b dataset
C -0.7953868559 -1.8558168512 -1.5580688903
O -0.6084866459 -1.3403337312 -0.2481828703
C 0.4950388741 -0.4104624412 -0.1595925203
C 0.7125086141 -0.0504665112 1.3255881897
C 0.1342394141 1.3718038488 1.5212742797
C -0.0263616259 1.8789593688 0.1126867297
C 0.1901368741 0.9254319688 -0.8046136703
H -1.5763048759 -2.6246579412 -1.4897778503
H 0.1324919841 -2.3207700112 -1.9456571203
H -1.1256888959 -1.0813305512 -2.2744768503
H 1.3833919641 -0.9012396412 -0.6061583203
H 1.7892702441 -0.0522951012 1.5459178697
H 0.2385833041 -0.8062795612 1.9654359397
H 0.8000654541 2.0129284788 2.1205270297
H -0.8387956159 1.3648225788 2.0423528697
H -0.3114596859 2.9089175688 -0.1128160303
H 0.1152875241 1.0658777388 -1.8835292803
