17
Molecule 6285 / 7211 from QM7b dataset
C -0.4407638082 -1.3718858880 -1.3587563322
C -0.9940834082 -0.5268802780 -0.2058463022
O -0.6447676982 -1.0932615780 1.0635478078
C -0.5927642382 0.9595924820 -0.2903286822
C 0.9138913518 1.2300111220 -0.2318214722
N 1.4902586918 0.7307264020 1.0383877278
H -0.7646772482 -0.9823049880 -2.3367458122
H -0.8016315782 -2.4042817880 -1.2597492522
H 0.6588059318 -1.4038982380 -1.3439875322
H -2.0967201282 -0.5704631980 -0.2537898122
H 0.2636920618 -0.7531180280 1.2519364178
H -1.0899076882 1.4938071320 0.5377029778
H -0.9880736282 1.3909286620 -1.2249519822
H 1.0984529018 2.3088030820 -0.3956616822
H 1.4208439018 0.6979426320 -1.0516593722
H 1.1969150118 1.3338240520 1.8121388278
H 2.5109518218 0.7747438620 1.0081873978
