12
Molecule 6405 / 7211 from QM7b dataset
O -1.9799326404 -0.0253679710 1.7651958642
C -1.0300591804 -0.0161967310 1.0221810942
C -0.1584118904 1.1026723590 0.4299408342
C 0.8415304496 -0.0100497310 -0.0450854658
C -0.1886257604 -1.1212662210 0.3641590542
C 1.2426789396 0.0257639490 -1.4392594858
N 1.5461822896 0.0546219490 -2.5661258358
H 0.2257363896 1.8502259390 1.1356033942
H -0.6619057604 1.6171684690 -0.4009259458
H 1.7403885096 -0.0409316910 0.5861909542
H -0.7052349404 -1.5719975810 -0.4952169358
H 0.1745255496 -1.9194167610 1.0240462842
