17
Molecule 5409 / 7211 from QM7b dataset
C -0.3823974075 -2.0415956462 -0.9145400223
O -0.6521053875 -1.0848835162 0.1060840177
C -0.3131182175 0.2703797538 -0.2619724423
C -0.9368282675 1.1356174338 0.8401889877
O -0.4557016975 0.7926226138 2.1368129777
C 1.1744998125 0.4596491538 -0.3790579723
C 1.8026048025 0.7660008738 -1.5195166923
H -0.6911148175 -3.0172163562 -0.5187246223
H 0.6884244625 -2.0759777362 -1.1767958323
H -0.9647380975 -1.8221635362 -1.8289697723
H -0.7984960075 0.5225432138 -1.2275886823
H -2.0364716675 1.0292899838 0.7819004477
H -0.6783531975 2.1910150238 0.6728363077
H -0.5995438175 -0.1683092462 2.2272865377
H 1.7379861825 0.3339350038 0.5506521277
H 1.2523775525 0.8960500638 -2.4558364723
H 2.8838217525 0.9086113938 -1.5585471523
