14
Molecule 5268 / 7211 from QM7b dataset
C -2.3825940573 -1.1420168034 1.8268496534
C -1.6352757373 -1.0568772734 0.7223002234
C -0.6234567773 0.0159302266 0.4827350234
O 0.6424721727 -0.6089345234 0.1769357734
C 1.6568385227 0.3305662666 -0.1224571366
C 1.4187211827 1.0696992766 -1.3775885266
N 1.2128413327 1.6498699766 -2.3682524066
H -3.1397371873 -1.9181620234 1.9436424334
H -2.2690156273 -0.4307220234 2.6487182334
H -1.7584147473 -1.7811373734 -0.0885423666
H -0.5178680073 0.6672138266 1.3713008034
H -0.9318223873 0.6466424366 -0.3736569366
H 2.5939475227 -0.2361558134 -0.2210825666
H 1.7878449227 1.0708971666 0.6908656334
