13
Molecule 2546 / 7211 from QM7b dataset
N -2.3190188636 -0.1029219083 0.1949536818
C -1.0494853536 -0.0415974983 -0.0149229182
C -0.2114095836 1.2147686417 -0.2064090682
O 1.0993966464 1.1352960017 0.3897077518
C 1.7572290864 -0.0362133183 0.0772762418
C 1.0899249264 -1.1705127783 -0.1989518382
N -0.3111077036 -1.1937423383 -0.1733273282
H -2.7169709336 0.8407825917 0.2554889418
H -0.7057624036 2.0728999017 0.2634029118
H -0.1032333736 1.4072172117 -1.2913818382
H 2.8411236364 0.0442463817 0.1096846618
H 1.5989973364 -2.0966306983 -0.4506045582
H -0.8159959136 -2.0729039583 -0.0975911082
