14
Molecule 1980 / 7211 from QM7b dataset
O -1.8954331786 -0.1794052330 0.2124043582
C -0.4841192086 -0.4533034030 0.1364980282
C -0.2356446786 -1.2317855230 -1.0755972518
C 0.0152615414 -1.8576386930 -2.0833165418
C 0.3272094814 0.8371660470 0.1377569182
C 0.6674874114 1.5141487770 1.4217998182
N 1.6886950014 0.7403186470 0.6849481182
H -2.0273832386 0.3662206870 1.0089771982
H -0.1508612286 -1.0550868630 1.0055836782
H 0.2266581514 -2.4248423430 -2.9667035818
H 0.1526317114 1.4732993470 -0.7353295718
H 0.3676660414 1.0662111470 2.3738604082
H 0.7176152514 2.6057521870 1.4217469982
H 2.3151064514 1.3699339470 0.1751473482
