19
Molecule 3367 / 7211 from QM7b dataset
C -1.9201630587 -0.0782488700 0.6639954309
C -0.4860460587 -0.3112787100 0.1548963109
C -0.4966604687 -0.9728479900 -1.1988245391
C 0.0019030313 -2.1825702400 -1.4761083991
C 0.2912537913 1.0001704100 0.1095960309
C 0.9756432613 1.5158781600 1.3543265809
C 1.7963399513 0.9992770400 0.1920051109
H -1.9066300987 0.4158590000 1.6463557509
H -2.4664215887 -1.0273225300 0.7557072509
H -2.4810305787 0.5675507200 -0.0297701991
H 0.0320277513 -0.9859655200 0.8610710309
H -0.9607605987 -0.3895273000 -2.0045663391
H 0.4701191913 -2.7966092200 -0.7019859591
H -0.0401748987 -2.6030135300 -2.4820939491
H -0.1529908087 1.7605879200 -0.5410785291
H 0.9232911113 0.8952345200 2.2513285509
H 0.9676185913 2.5892440700 1.5473669109
H 2.3514749013 1.7189606200 -0.4102257791
H 2.2898543313 0.0327224500 0.3085721009
