15
Molecule 4059 / 7211 from QM7b dataset
C 0.9124629391 0.0234111891 0.9505673839
C 0.3347402991 -1.0393887709 -0.0158091761
C 0.7408212691 -0.0008318409 -1.0899759661
N 0.3987990291 1.0589202391 -0.0462094161
C -1.0746467809 0.8081778591 0.0804020339
C -1.1722760309 -0.7574768109 0.1081182839
H 2.0100695291 0.0522770891 0.9790671239
H 0.4960611291 0.1082793691 1.9661598039
H 0.6636731791 -2.0883746409 -0.0310067861
H 0.1604971291 0.0609609491 -2.0234745361
H 1.8181945491 0.0250342691 -1.3020719461
H -1.4452960809 1.2816121691 0.9999549939
H -1.5937990809 1.2591443291 -0.7764709861
H -1.7492667909 -1.1685202109 -0.7329111161
H -1.5983369409 -1.1462047509 1.0444040039
