15
Molecule 5136 / 7211 from QM7b dataset
C -1.9656721775 0.4819639887 -0.6079790775
C -0.4546256775 0.3736303187 -0.6344971075
O 0.1279228525 1.4449434887 0.1449000325
C 1.3932418825 0.9581071287 0.5117122025
O 1.2424348425 -0.4574613513 0.7463998525
C 0.1450147225 -0.8611249713 0.0183537425
C -0.2586108875 -2.1342355713 -0.0543952975
H -2.4113037675 -0.3257522313 -1.2038764975
H -2.2839754575 1.4402766387 -1.0387259175
H -2.3358393475 0.4076480687 0.4226693025
H -0.0820808675 0.4483122387 -1.6779562275
H 2.1378703125 1.0974759687 -0.2984304575
H 1.7185329325 1.4427144487 1.4416622725
H -1.1484533975 -2.3906579713 -0.6244456475
H 0.2863008625 -2.9299196213 0.4495373225
