17
Molecule 4320 / 7211 from QM7b dataset
N -0.4414035825 -2.3727275117 -0.8035924091
C -0.9601719125 -1.2480498617 -0.0124017691
C 0.0390031675 -0.1173584517 0.0391931709
O 1.2320601575 -0.4243424417 0.7529728109
C 0.2644280875 0.7633155983 -1.1610408591
C -0.4185242925 1.3435220783 0.0541635409
N 0.2503596275 2.3710999183 0.8205223409
H -1.0582795025 -3.1827039817 -0.7117897891
H 0.4668267375 -2.6511136517 -0.4219764991
H -1.2288511925 -1.5149698517 1.0351632309
H -1.8849566925 -0.8814970217 -0.4880491991
H 0.9927859475 -0.4939171717 1.6966350309
H -0.3152578925 0.5634127183 -2.0621325291
H 1.2960223975 1.0742278983 -1.3372122991
H -1.4962193825 1.5143892083 -0.0267671891
H 1.2516199775 2.1625637783 0.8679745409
H -0.0912742725 2.3671645883 1.7863781909
