14
Molecule 3947 / 7211 from QM7b dataset
N -2.0113557075 0.8550124587 -1.1230164479
C -0.9338783275 0.0112924187 -1.0324013079
O -0.3242803275 -0.3859950413 -2.0221456279
C -0.5486313375 -0.4033255713 0.3881440321
C 0.9538473725 -0.4226354413 0.5673642521
C 1.6682751025 0.6797759587 1.2294324221
O 1.4234245525 -0.5629646113 1.9227111921
H -2.5594988075 1.1187906887 -0.3130121479
H -2.3591294975 1.0848787787 -2.0491759079
H -0.9368207175 -1.4240244713 0.5428327321
H -1.0078427775 0.2412480987 1.1522195621
H 1.4967035425 -1.0198511213 -0.1724578679
H 1.0999090325 1.5390067287 1.6029675921
H 2.7153385225 0.8758971187 0.9779802721
