20
Molecule 6665 / 7211 from QM7b dataset
C -2.5692428368 -0.8797549400 -0.6774055651
C -1.0538734168 -1.0191816800 -0.5282183551
C -0.3200707068 0.3196205300 -0.7212694851
O -0.7349581768 1.2900770800 0.2495828449
C 1.2140259532 0.1759782400 -0.7533304551
C 1.8475080532 -0.3588201500 0.5352079449
N 1.5550148232 0.5379775400 1.6780325949
H -3.0825911868 -1.8315528900 -0.4798028351
H -2.8379229768 -0.5582614500 -1.6957969951
H -2.9529175368 -0.1259044200 0.0236016049
H -0.6672686368 -1.7489304800 -1.2617034551
H -0.8196652068 -1.4194431700 0.4728439749
H -0.6323381068 0.7299858600 -1.6998492351
H -0.1654882068 1.1174928000 1.0392583549
H 1.6442621032 1.1660226600 -0.9834903551
H 1.4987693632 -0.4906395900 -1.5841537051
H 2.9317055132 -0.5111509400 0.3732739849
H 1.4249521832 -1.3459583600 0.7783723449
H 2.0975612332 1.4017983900 1.5884582249
H 1.8454208432 0.1030301700 2.5561926649
