15
Molecule 4223 / 7211 from QM7b dataset
N -1.1838718933 -1.0434197410 -0.9855314609
C -1.0471320533 0.3316093690 -0.8489369009
N -1.4557362133 1.2474652590 -1.6584801309
C -0.3822576833 0.7469152090 0.4527686191
C 1.0629114067 0.3079091190 0.5278582491
C 1.6609132767 -0.2011372210 1.7725759791
O 1.2975093067 -1.1150498810 0.7162192691
H -0.5339184433 -1.6157732110 -0.4476768609
H -1.3821909033 -1.3928778110 -1.9192437409
H -1.8878488233 0.8318650890 -2.4974995909
H -0.9362085533 0.3162604490 1.3021850391
H -0.4400737233 1.8416202390 0.5148814891
H 1.7328346367 0.7588398290 -0.2142055509
H 1.0404975467 -0.2608834510 2.6733030591
H 2.7374808767 -0.0987495710 1.9409874691
