17
Molecule 5665 / 7211 from QM7b dataset
N -2.1301103807 -0.4062768508 0.8901330133
C -0.6873633307 -0.3611890708 0.9888168833
C 0.0911604693 -0.9773648208 -0.1770508267
N -0.5535870807 -1.6069953208 -1.3086700667
C 0.0260024593 0.5215168092 -0.0220048567
C 1.2579596593 1.3028385292 0.3593109333
O 2.0900440293 1.6044280492 -0.7685422367
H -2.5488311307 0.4336577192 1.2958586133
H -2.5003169607 -1.2054646008 1.4100028033
H -0.2225442807 -0.4318229908 1.9821975733
H 1.0433173993 -1.4471055208 0.0876166133
H -1.5072464507 -1.2341517908 -1.3746225467
H -0.6637313607 -2.6079970408 -1.1184779067
H -0.6403894107 1.0247351292 -0.7301934167
H 1.8274951693 0.7464080492 1.1304251133
H 0.9875539193 2.2787181192 0.7929699633
H 2.1636675593 0.7856950592 -1.2921123467
