13
Molecule 1572 / 7211 from QM7b dataset
O -0.4760121194 -2.2859453650 -0.8923060679
C -0.7477603294 -1.5478127650 0.3106938221
C -0.1815620294 -0.1607772050 0.2471654321
N -0.9439094894 0.8901666750 0.2466493421
N -0.1120594894 2.0677882150 0.1242349921
C 1.1207057506 1.6808428750 0.0484730721
C 1.2681874906 0.1982279750 0.1191692721
H -0.9948527594 -1.8713207650 -1.6052222779
H -0.2730776994 -2.1236352450 1.1193127521
H -1.8269444194 -1.4780494150 0.5200708321
H 1.9289758206 2.4067975350 -0.0555274479
H 1.7410928106 -0.2420260350 -0.7737277379
H 1.8672607606 -0.1327726650 0.9843424921
