16
Molecule 645 / 7211 from QM7b dataset
O -3.0053759607 -0.1290665919 0.8196766935
C -1.5862537307 -0.3281245319 0.7542280335
C -0.9274177707 1.0434349181 0.7223400935
C 0.6093632393 0.9713590681 0.6750617735
C 1.1344236393 0.3726925681 -0.5926021465
N 1.8898548493 -0.6623829319 -0.5519211165
O 2.2790375193 -1.0601102319 -1.8595250465
H -3.4314588907 -1.0021695119 0.8074168435
H -1.3089735407 -0.9041869519 -0.1478593965
H -1.2252245107 -0.8941536819 1.6347645835
H -1.2375071807 1.6050826981 1.6169637935
H -1.3097008707 1.6003152681 -0.1489185565
H 1.0020059793 0.3957165481 1.5271191335
H 1.0075695993 1.9962541981 0.7668024935
H 0.8638450693 0.8305578681 -1.5562248565
H 2.8404756693 -1.8334934519 -1.6719959265
