13
Molecule 2612 / 7211 from QM7b dataset
O -1.9775778082 -0.2395091892 -0.2807963551
N -0.5690418582 -0.3473259492 -0.3837392451
C 0.0549291518 -1.4434587592 0.2357131549
N 1.2611647818 -1.2469594292 0.6256135049
C 1.5457564818 0.1770361408 0.3281351649
C 0.2297815618 0.7943383508 -0.1190264051
C -0.1502205282 2.0731725408 -0.2333218051
H -2.2778709382 -0.2568844892 -1.2106042851
H -0.4897884682 -2.3864558192 0.2998484549
H 1.9778764518 0.6734247608 1.2084505949
H 2.2969756318 0.2246566508 -0.4780610851
H 0.5437879318 2.8735153808 0.0146309649
H -1.1566986082 2.3412850408 -0.5500142751
