13
Molecule 2405 / 7211 from QM7b dataset
C -2.0998387590 0.2347813532 0.4107054719
C -0.7817072090 0.3153407632 0.2056958419
C 0.1499922910 1.4979411732 0.2453819819
N 1.4055372110 1.0500814732 -0.4324904081
N 1.3081403110 -0.3798070068 -0.4447723681
C 0.0871372310 -0.8893267268 -0.0391706981
O -0.1862579990 -2.0753372568 0.1081140319
H -2.5838818290 -0.7435710668 0.3909682019
H -2.7158405790 1.1127250032 0.6107327419
H 0.3947797810 1.7507733332 1.2916215119
H -0.2385140090 2.4018994432 -0.2412347881
H 1.3344673210 1.3361140232 -1.4165527581
H 2.1698093310 -0.8995833268 -0.2952833181
