12
Molecule 813 / 7211 from QM7b dataset
N -2.9904124470 -0.1501511074 0.0409275850
C -1.8190355970 -0.1654952374 0.0413734250
C -0.4069725970 -0.0781052674 0.0240936950
N 0.3550858430 -1.1396743474 0.0531346450
N 1.6519849930 -0.7347298674 0.1292391150
C 1.7857045130 0.6893365226 -0.2601359150
C 0.3816391230 1.2221687126 0.0739411850
H 2.2955819730 -1.4181801274 -0.2652196350
H 2.0018717630 0.7795720226 -1.3396253050
H 2.5870940430 1.1752319626 0.3095879050
H 0.0187514730 1.9778384226 -0.6324088550
H 0.3320793730 1.6499965926 1.0889221350
