16
Molecule 4953 / 7211 from QM7b dataset
C -2.1427012889 -0.7339626662 0.8328822562
N -0.6840191789 -0.7206253262 0.7602260862
C -0.1063275089 -1.2648235562 -0.4753536638
C -0.1035879489 0.2087206338 -0.2112264638
C 1.1493992411 0.9502096438 0.1971007562
N 1.8434267111 1.4566393238 -0.9974120938
H -2.4769742789 0.0526455138 1.5250135162
H -2.4764598789 -1.7042435162 1.2291241262
H -2.6347199289 -0.5690840862 -0.1476270038
H -0.7950561589 -1.6347016062 -1.2429318138
H 0.8084688211 -1.8508503162 -0.3473180638
H -0.8043798589 0.7963621038 -0.8184824938
H 1.7517594511 0.2808120138 0.8419091662
H 0.8647651111 1.8186364438 0.8143734862
H 2.2208921511 0.6713222238 -1.5347474838
H 2.6451568811 2.0261389138 -0.7194286938
