16
Molecule 1277 / 7211 from QM7b dataset
C -3.3977803059 -0.8328493628 0.0057070083
C -2.2234749859 -0.7414785728 -0.2859711317
C -0.8058530859 -0.6623055328 -0.6192868517
N -0.0273317859 -0.0029574528 0.4426442283
C 1.3905924841 -0.0362614128 0.1826598083
C 1.9750370441 1.1062163172 -0.6159300917
C 2.2444755841 0.9979251672 0.8684730683
H -4.4366731359 -0.9021864428 0.2561417683
H -0.6788819359 -0.0758091328 -1.5453961117
H -0.4402535259 -1.6873082828 -0.8501529917
H -0.2346278059 -0.4542340428 1.3376950783
H 1.8538215241 -1.0220812728 0.0178439483
H 1.2775522841 1.8815889772 -0.9339998017
H 2.7862861841 0.8885457672 -1.3107552017
H 3.2403970841 0.7018934672 1.1980660083
H 1.7257214241 1.7028135172 1.5181368483
