17
Molecule 4407 / 7211 from QM7b dataset
C -1.1489650307 -2.4623276601 0.3280086508
C -0.9440424407 -1.4818541501 -0.8381164092
C -0.4495455207 -0.1332183801 -0.3352363692
O -1.1726267007 0.5837465899 0.3524292308
C 0.9753789693 0.2635487499 -0.6763457792
C 1.3663993393 1.6497502599 -0.1643284392
O 1.2655866993 1.7583229499 1.2526195108
H -1.5498299807 -3.4173664901 -0.0369424292
H -1.8539301307 -2.0447260001 1.0587764708
H -0.2011899807 -2.6702447301 0.8457523408
H -1.9062818807 -1.3058110801 -1.3445187492
H -0.2421774007 -1.8986050801 -1.5758273692
H 1.1004951893 0.1961043799 -1.7720795792
H 1.6422467993 -0.5112275001 -0.2548588092
H 0.7414955793 2.4119357099 -0.6668354392
H 2.4151831393 1.8590785699 -0.4208233492
H 0.3149567793 1.6289129899 1.4430770608
