16
Molecule 6150 / 7211 from QM7b dataset
C -2.5542168673 -0.8027328792 0.9944085125
C -1.0446240473 -0.7916471292 0.9165760025
C -0.3286830473 -1.3832266092 -0.2781163475
C -0.3333230473 0.1121180808 -0.0627626975
C 0.9444560027 0.8235423108 0.3559688925
C 1.8136786627 1.1436309308 -0.7769907175
N 2.4962914527 1.3978487808 -1.6880398475
H -2.9301290873 -0.0012463692 1.6480796325
H -2.9227513073 -1.7610941692 1.3900292925
H -3.0011852573 -0.6608796792 -0.0007029075
H -0.5360803173 -0.9274405792 1.8764427625
H -0.9358081473 -1.7797529892 -1.0930891675
H 0.6074993827 -1.9183280092 -0.1107293375
H -0.9703091673 0.6953650008 -0.7324579875
H 1.5168161827 0.1959274308 1.0581332225
H 0.7141816127 1.7623996708 0.8860715525
