15
Molecule 4377 / 7211 from QM7b dataset
C -0.5545538783 -1.9774954127 0.3101914013
C -1.2384672183 -0.6191400327 0.1401133813
O -2.4761977883 -0.5700674327 0.1958679913
C -0.4689176783 0.5912099473 -0.0848221987
C 0.8908504117 0.7950912873 -0.1562148387
N 1.8892390417 -0.1052791727 0.1790273813
N 1.4117893917 2.0133213373 -0.5873799687
H -0.0044285683 -2.0286815327 1.2639373313
H 0.1389954717 -2.1978657327 -0.5166225987
H -1.3334947083 -2.7480661127 0.3288474813
H -1.0975573383 1.4740268273 -0.2183758087
H 1.5833428017 -1.0557124927 0.3596405513
H 2.7157165817 -0.0598065227 -0.4141166187
H 0.7111491617 2.7392625473 -0.7139802887
H 2.2151900517 2.3430925973 -0.0534123387
