14
Molecule 1261 / 7211 from QM7b dataset
C -2.3761043536 -1.4013810723 -0.0005624615
C -0.8601000636 -1.4183990723 -0.0044980715
O -0.3916499336 -0.0670152023 0.0005088685
C 1.0341961064 -0.0165783923 -0.0029034515
C 1.4934059464 1.3654761077 0.0029293085
C 1.9101900364 2.5041318377 0.0071513785
H -2.7644482336 -2.4292545023 -0.0040585515
H -2.7603276436 -0.8810026023 -0.8883196915
H -2.7557622536 -0.8887875723 0.8936665885
H -0.4749614936 -1.9451589723 -0.9012100015
H -0.4704209936 -1.9533097023 0.8854020585
H 1.4367691364 -0.5344836023 -0.8981136715
H 1.4413257664 -0.5435700223 0.8849129485
H 2.2714991564 3.5121921477 0.0109491585
