16
Molecule 6806 / 7211 from QM7b dataset
N -1.9156602267 -0.4347989051 0.2423601944
C -0.5239867667 -0.2656197151 0.7355554444
C 0.3106838033 -1.4753002551 0.3745759144
C 1.2019772133 -1.2060555251 -0.5889779156
C 1.1441112033 0.2341185649 -1.0307349356
C 0.1790185433 0.8540344749 -0.0329823756
C 0.0053090633 2.1587930949 0.1985250444
H -2.4498373467 0.4094140149 0.4672739644
H -2.3633282067 -1.2015551451 0.7535805144
H -0.4808056267 -0.0603648651 1.8255255644
H 0.1559378633 -2.4526983151 0.8345410644
H 1.8867687933 -1.9317800051 -1.0305120056
H 2.1281509333 0.7306260749 -1.0144107156
H 0.7700299133 0.3147486449 -2.0675476556
H 0.5375528933 2.9207583349 -0.3747142356
H -0.6775259867 2.5146197649 0.9739750844
