18
Molecule 6820 / 7211 from QM7b dataset
C -3.2186192257 -1.3002706059 0.2956657674
C -1.7043901257 -1.4237136659 0.1738038174
N -1.0760398857 -0.1058954859 0.0411898274
C 0.3824095143 -0.1717766759 -0.0008838526
C 0.9762595443 1.2381222241 -0.1669647826
C 2.4300609543 1.2358430541 -0.2548071526
C 3.6418364743 1.2133893341 -0.3262115826
H -3.6862949857 -2.2924904859 0.3603677774
H -3.6368873657 -0.7713421359 -0.5720354426
H -3.4999403357 -0.7423609259 1.2026999474
H -1.4494334957 -2.0047552259 -0.7289091626
H -1.3045602957 -1.9985921259 1.0385939874
H -1.3618481557 0.4727759441 0.8380750174
H 0.6738428943 -0.7859120759 -0.8683087826
H 0.8310444443 -0.6534769859 0.8943400574
H 0.6675264543 1.8688938141 0.6855003674
H 0.5431857643 1.7004935941 -1.0688494826
H 4.7103014643 1.1984730241 -0.3934163626
