13
Molecule 1104 / 7211 from QM7b dataset
O -1.9062733580 -1.2469797028 0.6192589358
N -0.5955979980 -0.9671897528 0.1305449758
C -0.5102767180 0.2551968972 -0.5571322842
N -1.4676537380 0.9390950672 -1.0565747142
C 0.9358130520 0.6881739972 -0.7955544542
C 1.8218625220 0.5051758072 0.3480766958
C 2.5396827020 0.3349471972 1.3123515458
H -2.1342028980 -2.0813784528 0.1674254658
H 0.0591611720 -1.0186717628 0.9190831558
H -2.3665274880 0.4987070672 -0.8108517342
H 0.8958207520 1.7450857872 -1.0935819042
H 1.3300736220 0.1227670672 -1.6568325942
H 3.1861345120 0.2050273272 2.1564452758
