19
Molecule 5601 / 7211 from QM7b dataset
C -0.5806172192 -1.9697478908 -1.5521805433
C -0.8168644792 -1.3875692308 -0.1584944933
C -0.2687985792 0.0331988792 0.0157487667
O -0.7175703792 0.4820495392 1.3097218867
C -0.5528510992 1.8823993592 1.5064707867
C 1.2336758108 0.0864496792 -0.0736970233
C 1.9247484208 0.8096554292 -0.9614587533
H -0.9962876692 -2.9842939908 -1.6246194733
H 0.4907627108 -2.0263279308 -1.7923785133
H -1.0630535592 -1.3565115808 -2.3287773733
H -0.3594538192 -2.0309413208 0.6111772767
H -1.8945918092 -1.3490851208 0.0643946467
H -0.7024783192 0.6919023792 -0.7670384933
H -0.9505853092 2.1069868692 2.5044272867
H -1.1202547392 2.4625800292 0.7535289267
H 0.5063352208 2.1904560692 1.4605555367
H 1.7613901908 -0.5209152008 0.6715216867
H 1.4170692808 1.4265247192 -1.7081357533
H 3.0159537308 0.8069114192 -0.9807632833
