18
Molecule 7060 / 7211 from QM7b dataset
C -0.0493143548 -2.6325661385 -0.1779983756
N -0.5916145048 -1.4341444285 0.4617913344
C 0.2594198552 -0.2550644385 0.2887441744
C 0.2402754552 0.3003012515 -1.1632726656
C 0.2751133352 1.7949856615 -0.9642306056
C 0.0381239452 2.1370189715 0.3099943444
C -0.1980587648 0.9278558215 1.1795001244
H -0.6756402648 -3.4990886285 0.0748943244
H 0.9998338152 -2.8614953785 0.1082118544
H -0.0765117148 -2.5147736685 -1.2716684356
H -0.6954003648 -1.6152561485 1.4633117444
H 1.3203105852 -0.4822867985 0.5406242144
H -0.6921299748 -0.0066384285 -1.6717401656
H 1.0793870052 -0.0705350785 -1.7727175056
H 0.4368622652 2.5000976215 -1.7814658556
H -0.0232900248 3.1601342215 0.6845525744
H 0.3471002752 0.9678875115 2.1360771444
H -1.2725768948 0.8257790015 1.4209587844
