16
Molecule 5018 / 7211 from QM7b dataset
C -0.4366108281 -2.2378022696 -1.5716724503
C -0.4173454481 -1.6805187296 -0.1528246003
N 0.3940815719 -0.4722270496 -0.0547850803
C -0.1529778481 0.7597503404 -0.6936716803
C 0.1941996619 1.5151404204 0.5951359997
O 0.2507519319 2.6752901204 0.9209648997
C 0.4610595819 0.1725000604 1.2860131697
H -1.0384568181 -3.1561334196 -1.6158799203
H 0.5826625319 -2.4689545096 -1.9109070603
H -0.8764079881 -1.5179084896 -2.2779292703
H 0.0159669019 -2.4253702796 0.5339572097
H -1.4612349381 -1.4917200296 0.1928786997
H -1.2519633181 0.7432381604 -0.8493260403
H 0.3411760219 1.0818621404 -1.6222823603
H 1.4128284919 0.0545055504 1.8258607097
H -0.3791080581 -0.0906696696 1.9615217697
