20
Molecule 6242 / 7211 from QM7b dataset
C -1.5828895555 0.2321823494 1.3629969910
C -0.0598265555 0.1920837294 1.1862481810
C 0.4455249545 -1.1760494806 0.6728159910
C 0.1371308045 -1.3880488306 -0.8161598190
C 0.6631972345 -0.2124047006 -1.6495322690
C 0.1385221045 1.1199082094 -1.0942038290
N 0.3902404645 1.3230506694 0.3412813910
H -1.8906579755 1.2190075294 1.7340029910
H -1.9067332655 -0.5315610206 2.0848223310
H -2.1197217555 0.0442145094 0.4221155510
H 0.3847246545 0.3682216694 2.1805087910
H 0.0150328045 -1.9910174906 1.2781537010
H 1.5396701545 -1.2194883906 0.8184316210
H 0.5774726745 -2.3363502106 -1.1620021790
H -0.9524857755 -1.4824249206 -0.9655121590
H 1.7681679845 -0.2074574006 -1.6212934990
H 0.3721738645 -0.3225658806 -2.7074585690
H 0.5824769045 1.9695442694 -1.6356663690
H -0.9502821755 1.1830152994 -1.2642886790
H 1.3985247345 1.4394796894 0.4762252510
