12
Molecule 634 / 7211 from QM7b dataset
O -1.1153771563 -2.1893873015 -0.4756255306
C -1.6150591463 -1.1163028415 -0.1919356206
C -0.8449342763 0.1508678385 0.0775775094
C 0.6768691437 -0.0124978315 -0.0353712406
C 1.3949365337 1.2267162285 0.2290014894
C 1.9815310037 2.2658344085 0.4518243994
H -2.7281220963 -1.0069927515 -0.1126225706
H -1.1364273063 0.5126243085 1.0796131894
H -1.2183421363 0.9236385685 -0.6176089806
H 0.9294138937 -0.3850843915 -1.0408079806
H 1.0117972137 -0.7962192515 0.6625486994
H 2.5046381337 3.1794251185 0.6473026694
