15
Molecule 2223 / 7211 from QM7b dataset
C -2.0988207696 -0.0794880050 -0.7966192828
C -0.5673286796 0.0170133050 -0.8280303328
C -0.0430916996 1.3337385150 -0.2855431028
C 0.7099754204 1.1747368450 0.8172816172
C 0.8651367804 -0.2753576250 1.1254590772
O 1.5362489604 -1.0195214950 0.0582183672
C 0.0988452004 -1.0087310950 0.0914450672
H -2.4389856996 -1.0515641650 -1.1838487728
H -2.5555147996 0.7076146750 -1.4130250328
H -2.4770206596 0.0356337550 0.2297809072
H -0.2147813996 -0.1333809250 -1.8641700328
H -0.2498081896 2.2871458750 -0.7759222628
H 1.1847931904 1.9711191050 1.3898983272
H 1.0504919704 -0.6542169750 2.1331122172
H -0.3774636096 -1.9776510250 0.2744694572
