12
Molecule 3264 / 7211 from QM7b dataset
C -0.4422746750 -2.5492531130 0.2839145156
C -1.0289670650 -1.3640456230 0.0437176956
C -0.3476867950 -0.0918332530 -0.0351350244
N -0.8856228450 1.0841012170 -0.2671668944
C 0.1770636750 1.9715366470 -0.2418151344
C 1.3305944150 1.2886623070 0.0075697756
O 1.0193754750 -0.0409064430 0.1444345056
H -1.0326603350 -3.4633571230 0.3267614756
H 0.6333128950 -2.6337835130 0.4420474056
H -2.1063220950 -1.2879479730 -0.1136281944
H 0.0423875250 3.0366483870 -0.4038936844
H 2.3752607950 1.5565814570 0.1138942456
