15
Molecule 4139 / 7211 from QM7b dataset
C -0.5446230182 -1.2091652470 -1.3048321682
C -0.1843343582 -0.6290347170 -0.1400792282
C -0.7656923382 -1.0461459770 1.0969269418
C -1.2180624782 -1.3734569370 2.1784706918
C 0.8243978618 0.4743044230 -0.0285250082
C 1.2247232418 1.3263010430 -1.2045953582
C 0.3729405618 1.9219064730 -0.1086466882
H -0.0832613782 -0.9119467270 -2.2463161882
H -1.3019133682 -1.9917478370 -1.3311153882
H -1.6307127982 -1.6698760870 3.1208792018
H 1.6008201518 0.2788662630 0.7156600818
H 0.7455097218 1.1441474030 -2.1664346582
H 2.2700025018 1.6285929130 -1.2724874682
H 0.8230298418 2.6362868430 0.5809601918
H -0.6795715082 2.0974228630 -0.3334608682
