13
Molecule 2697 / 7211 from QM7b dataset
C -0.4824999800 -1.3351093812 -1.2409475944
C -0.1881624700 -0.6462624212 -0.1238025544
C -0.8642032500 -0.9343046612 1.1078369656
N -1.3745903000 -1.1488592612 2.1379019556
C 0.8544192300 0.4306262188 -0.0434819044
C 1.1700880500 1.3254172588 -1.1870405044
N 0.3525841100 1.8217050088 -0.0604353744
H 0.0457954000 -1.1304529012 -2.1719437544
H -1.2482533900 -2.1097703012 -1.2456145744
H 1.6729174700 0.2008871088 0.6472296756
H 0.6217800700 1.2234132388 -2.1257928844
H 2.2039573000 1.6642095588 -1.2891089344
H 0.9199970000 2.3995909788 0.5675779556
