17
Molecule 5518 / 7211 from QM7b dataset
C -1.5762207289 0.2374640128 1.3550363828
C -0.0601930889 0.1842605328 1.1533496528
C 0.4610258611 -1.1632514772 0.6227451428
C 0.2114240811 -1.2922366672 -0.8792420572
O 0.7499454211 -0.1552859972 -1.5697303372
C 0.1494999311 1.0267266728 -1.0708488572
O 0.4160383611 1.2566355828 0.2994256528
H -1.8749546289 1.2424140228 1.6827501828
H -1.8725159689 -0.4807073772 2.1336695728
H -2.1401055689 -0.0092272372 0.4448384628
H 0.4219373711 0.3962962128 2.1202807228
H -0.0149821489 -1.9964379072 1.1634579728
H 1.5453582211 -1.2177802272 0.8011819328
H 0.7152440511 -2.1751722672 -1.2956607572
H -0.8713016489 -1.3801460672 -1.1020900672
H 0.5960050711 1.8673848828 -1.6163144072
H -0.9457713389 0.9848008328 -1.2559177272
