14
Molecule 5286 / 7211 from QM7b dataset
N -2.6860354415 -0.4008047235 0.2210534783
C -1.6362234515 -0.1569717435 -0.2259577617
C -0.3020495315 0.1528494865 -0.7821901517
C 0.3730617985 1.3365620365 -0.0192587117
C 1.5700946085 0.6672490565 0.6956687083
C 1.2327726685 -0.8225397435 0.6139848083
O 0.5728878685 -0.9726978035 -0.6585057817
H -0.4231939815 0.3521336865 -1.8575556517
H -0.3295375315 1.7904456165 0.6905441183
H 0.6928641785 2.1139023465 -0.7236461217
H 2.5044288185 0.8697965765 0.1544368083
H 1.6878543285 1.0163158465 1.7298934783
H 2.1053351085 -1.4872844335 0.6015155883
H 0.5554576685 -1.1309887035 1.4320023383
