15
Molecule 3420 / 7211 from QM7b dataset
N -1.7810021407 -0.9422387837 -0.6444587933
C -0.5321514907 -1.0402454237 -0.0801334033
O -0.2181287707 -1.9656475737 0.6642246867
C 0.4779044793 0.0140271363 -0.5291869633
C 0.0367960193 1.5043207363 -0.5895087433
N 0.6561094093 1.7117552163 0.7429372467
C 1.4501160393 0.4574352263 0.5905667567
H -2.0908439907 -0.0805687737 -1.0788938233
H -2.4904756407 -1.5855783737 -0.3057003233
H 0.9535096893 -0.3693608937 -1.4432899133
H -1.0424099007 1.7334707563 -0.6240691133
H 0.5322553293 2.0376400263 -1.4216540033
H 1.2102275093 2.5663829663 0.8284399667
H 2.4755433193 0.6093330163 0.2107292767
H 1.4754826893 -0.1859792137 1.4808653867
