14
Molecule 4892 / 7211 from QM7b dataset
O -2.9157735816 0.2702723023 0.0878113398
N -1.5946062716 0.2452105523 -0.4165078402
C -0.8498407816 -0.5387078477 0.2695411898
C 0.5888090584 -0.7226080477 -0.0994673102
C 1.2600426884 0.3257165323 -1.0068787802
C 2.1559088984 0.6182405923 0.2105832798
O 1.4667760684 -0.3809939677 1.0263819198
H -3.3509361916 0.8962601123 -0.5191533602
H -1.2341589716 -1.0921591477 1.1373113698
H 0.7567160884 -1.7736135477 -0.4016786002
H 0.5935065084 1.1390287423 -1.3126839202
H 1.7736896784 -0.0863434577 -1.8827382902
H 3.2218681084 0.3652191223 0.0901322798
H 2.0640196084 1.6250602623 0.6481490498
