12
Molecule 803 / 7211 from QM7b dataset
O -1.3558620330 -1.9516735325 -0.0360666975
N -0.4334339430 -0.9318431525 -0.2843902975
C -0.6453794230 0.2373436675 0.3635472425
O -1.6930792030 0.4199970975 0.9996267525
C 0.4346623670 1.3103715575 0.2122651025
C 1.6618900670 0.8809101275 -0.4417905875
C 2.6715598070 0.4883511475 -0.9893223975
H -1.9982037730 -1.4567432325 0.5431679125
H 0.4915855670 -1.2677165825 -0.5467617175
H 0.6455958370 1.6838484175 1.2264583325
H -0.0215191830 2.1502300875 -0.3370341075
H 3.5717121370 0.1648358575 -1.4717749375
