13
Molecule 1737 / 7211 from QM7b dataset
N -1.5787934084 -0.9755397091 0.7653384318
C -0.9369479184 -0.3626268791 -0.2813604882
O -1.0515210784 -0.7432817091 -1.4424138582
C -0.0751063584 0.8491085909 0.0979432818
C 1.3792967816 0.5736056609 -0.1689094482
C 2.3591064216 0.7289632209 0.7276442318
H -1.3482761184 -0.7560140691 1.7274001218
H -2.0642446784 -1.8468134991 0.5716819918
H -0.2258616884 1.1570161509 1.1436236518
H -0.4202992284 1.6710484209 -0.5507012082
H 1.6073457016 0.2180069609 -1.1783851482
H 2.1589639416 1.0828442709 1.7425158318
H 3.3980010016 0.5146398409 0.4739011418
