13
Molecule 4582 / 7211 from QM7b dataset
C -1.6753666889 0.0517979573 0.9772516100
C -0.1597904289 0.0131699173 0.8601718100
C 0.3890823411 -1.2051175227 0.0974379900
C 0.8162777911 -0.5515215727 -1.1866489100
N 0.7609157411 0.7328603573 -1.1812638900
O 0.2831854411 1.1778382973 0.0566714800
H -2.0043084489 1.0058725873 1.4094404800
H -2.0296694689 -0.7631177327 1.6258215900
H -2.1415135089 -0.0598575027 -0.0123484900
H 0.3141980011 0.1364212973 1.8450016300
H -0.3756223789 -1.9813785527 -0.0592675900
H 1.2460030011 -1.6832560227 0.5988501500
H 1.1778010011 -1.0573856327 -2.0812973800
