16
Molecule 2744 / 7211 from QM7b dataset
C -0.9652645552 -0.0359438233 1.0556637756
C -0.5922233652 -1.1105230333 0.0012465056
C -1.0154401552 -0.0114925933 -1.0080507844
N -0.6659147252 1.0410520167 0.0285492256
C 0.8024958048 1.2513214767 -0.0046129144
C 1.5983535748 -0.0377946233 -0.0393782544
C 0.9214322048 -1.1964582433 -0.0366231144
H -0.3647033152 0.0081086667 1.9755084056
H -2.0386451252 -0.0087702433 1.2960972756
H -1.0989410252 -2.0862299933 0.0019976456
H -2.0992224252 0.0207749467 -1.1953103944
H -0.4602698352 0.0547025867 -1.9546907644
H 1.0366353348 1.8763294767 -0.8844098144
H 1.0794613948 1.8552826967 0.8774420356
H 2.6905092648 0.0051870067 -0.0655521144
H 1.4204577548 -2.1674042233 -0.0603981344
