17
Molecule 1579 / 7211 from QM7b dataset
C -2.1619386032 -0.0373930423 0.2675375728
N -0.7283976332 0.1762113277 0.3965654928
C 0.1174974268 -1.0110178023 0.4676953528
C 0.6415313368 -1.4681173623 -0.8953868472
O 1.5553447768 -0.5420431623 -1.4794846272
C -0.2286568232 1.4418466377 0.6568198528
N 0.9805082968 1.8474402677 0.8288215028
H -2.6716616432 0.9326972377 0.2143770928
H -2.5671694532 -0.5983802223 1.1284218128
H -2.4032857132 -0.5950488023 -0.6512752672
H -0.4665389632 -1.8266447923 0.9277146028
H 0.9692293568 -0.8021092223 1.1346919528
H -0.2083247032 -1.6730593723 -1.5749916772
H 1.2009581968 -2.4079616923 -0.7715034972
H 1.0942438268 0.3121598977 -1.5726516872
H -1.0321619732 2.1920712877 0.7055717828
H 1.6665781868 1.0851492277 0.7378173428
