14
Molecule 2162 / 7211 from QM7b dataset
O -1.4674292634 0.2480972232 1.7152837375
C -0.7301035434 0.0503454932 0.7656516675
C -0.5400937134 -1.2728795168 0.0136855275
C 0.8951129166 -1.2221536268 -0.5519424825
C 1.2302234566 0.2635556832 -0.6278844725
N 0.1868526366 1.0318387732 -1.3244885625
C 0.2363859966 1.0408302932 0.1792630175
H -1.2882625634 -1.3009811568 -0.7934156125
H -0.7344737634 -2.1203868368 0.6814357975
H 1.5968386066 -1.7153017968 0.1382925375
H 0.9885353866 -1.7078373268 -1.5341319525
H 2.2701852066 0.5911145032 -0.6891222025
H 0.5821986766 1.9250166432 -1.6392611525
H 0.4672934266 1.9625368132 0.7127130775
