17
Molecule 1603 / 7211 from QM7b dataset
C -1.7635884092 -0.7627625746 0.5683672781
C -0.2656523392 -0.6744960946 0.2478532681
C 0.1366266008 -1.3581550746 -1.0421601019
C -0.6793396392 -1.9426185246 -1.9277016119
C 0.1947412808 0.7635362054 0.2074784481
N 1.1175106108 1.1866237654 0.9940817081
N 1.5568583408 2.4837029454 0.8464162181
H -1.9714070892 -0.2951607046 1.5403206481
H -2.0965029992 -1.8096353446 0.6121139081
H -2.3684977892 -0.2457073346 -0.1922746019
H 0.3074565408 -1.1472822246 1.0648751281
H 1.2130671808 -1.3405667846 -1.2442368219
H -1.7604201792 -1.9902150346 -1.7835472019
H -0.2838150392 -2.4048210946 -2.8332625419
H -0.2842057792 1.4257265954 -0.5397580619
H 1.9147767308 2.8309583754 1.7339582381
H 0.8722408008 3.1313929554 0.4353021381
