16
Molecule 5175 / 7211 from QM7b dataset
C -1.8839865718 0.0532119981 0.7938007945
C -0.3722215118 -0.0017734219 0.8257482545
C 0.4696537782 -0.7382035319 -0.2292952055
C -0.1298459118 -1.4810081419 -1.4033411455
C 0.4769874282 0.7661697881 -0.1534918855
O 1.6118801682 1.5219933281 0.2240215445
H -2.2540089818 0.9067479381 1.3818088545
H -2.3312848918 -0.8617198019 1.2126878245
H -2.2684803718 0.1703401081 -0.2289680555
H 0.0501040682 -0.0642586919 1.8347346945
H 1.3640492282 -1.2137912219 0.1883776745
H -0.9960105718 -0.9517270119 -1.8240987255
H -0.4663002018 -2.4891238519 -1.1152011255
H 0.6092951882 -1.5923914419 -2.2109998955
H -0.0518948318 1.3000620281 -0.9477269955
H 2.0859667582 1.0295351781 0.9166885145
