13
Molecule 4000 / 7211 from QM7b dataset
C -2.4744058161 -0.6798952305 -0.1857254507
C -1.2003045461 -0.5595785705 0.2148086693
C -0.1872246361 0.1064248295 -0.6503929007
O -0.4318309861 0.5513720895 -1.7689622907
C 1.2088682339 0.2491868795 -0.1016785407
C 1.4244836139 0.8286819495 1.2463159293
O 1.6020455639 -0.5721917105 1.0189280493
H -3.2261728061 -1.1709347205 0.4325170193
H -2.7797938561 -0.2845808605 -1.1571658807
H -0.8583618061 -0.9603673105 1.1712286393
H 1.9756175739 0.4093402695 -0.8663508007
H 0.5579383339 1.1022801695 1.8583196293
H 2.3405548439 1.4019002795 1.4217590893
