12
Molecule 498 / 7211 from QM7b dataset
C -2.1818819538 -0.5522827168 0.3956360325
C -0.6782248238 -0.5340452968 0.4909817625
N 0.1636958362 -1.2160052568 -0.5027273475
C 0.1269239662 0.2718509532 -0.4874058075
C 1.3378075962 0.9499754332 -0.0944156875
N 2.2945821262 1.5339287132 0.2316700125
H -2.6241557138 0.2460843932 1.0086593925
H -2.5774437838 -1.5122476068 0.7582009025
H -2.5197925838 -0.4127250768 -0.6421279975
H -0.2662006238 -0.6087426268 1.5018925025
H -0.4150565438 -1.5407207368 -1.2865574975
H -0.4330451938 0.7898972232 -1.2714437575
