17
Molecule 6872 / 7211 from QM7b dataset
O -2.9360409021 -0.9625280223 -0.1238950820
C -1.5644759021 -1.1508520823 0.2566825280
C -0.8348681921 0.1630369777 0.0189502180
C 0.6588091579 0.0914374177 0.3776140080
O 1.3472224079 -0.9051325023 -0.3883060920
C 1.3041048579 1.4537504177 0.2948252680
C 2.4645128979 1.7203929877 -0.3131870220
H -3.3878257621 -1.8191357823 -0.0446323120
H -1.0921530821 -1.9541630123 -0.3341269120
H -1.4881523321 -1.4284813623 1.3262842380
H -1.3172378921 0.9528005477 0.6176491480
H -0.9450512221 0.4566424077 -1.0391293220
H 0.7466505379 -0.2654806323 1.4216052480
H 1.3582581679 -0.5938856723 -1.3132652220
H 0.7458292679 2.2624504977 0.7789337680
H 3.0556044179 0.9304697077 -0.7810976620
H 2.8661289379 2.7334731877 -0.3439215820
