15
Molecule 4450 / 7211 from QM7b dataset
O -0.8463903061 -2.6885467183 0.5679672629
C -1.1557579061 -1.2968055183 0.4053636329
C 0.1434041439 -0.5573812483 0.2208964129
C 0.7537497939 -0.3429451183 -1.1074393971
N 0.0104912739 0.7696600017 -0.4464760271
N 0.9594989039 1.6935616217 0.1392999129
C 0.5112671739 2.8901468117 0.1224569829
H -1.6731546461 -3.1538493783 0.7780951729
H -1.6783409161 -0.8988767983 1.2953827029
H -1.8000620661 -1.1233664583 -0.4751721571
H 0.8344350539 -0.5830792883 1.0673696829
H 0.2652984039 -0.7197165883 -2.0076432971
H 1.8386185439 -0.2337154683 -1.1491458171
H 1.1517487939 3.6707542317 0.5416799329
H -0.4733311961 3.1495825717 -0.2917373171
