15
Molecule 4663 / 7211 from QM7b dataset
N -1.7280046426 -1.5243038642 0.1436771330
N -0.3860274626 -1.2877136742 0.1688235630
C 0.0278181874 -0.0438082842 0.1389630730
C -0.8845658026 1.1053337058 0.1802051930
C -0.6130338126 2.3420698658 -0.2766265670
C 1.4821167374 0.1873061458 0.1106453130
C 2.4036484274 -0.6949370042 -0.3105205670
H -1.9151619626 -2.5023761642 -0.0602469170
H -2.3081641026 -0.8856399242 -0.4081366970
H -1.8535443526 0.9275687558 0.6607266830
H 0.3250242774 2.5776106658 -0.7832594170
H -1.3318893226 3.1545942458 -0.1628785970
H 1.8057693374 1.1692581258 0.4681359630
H 2.1134328974 -1.6741972242 -0.6938568270
H 3.4668555474 -0.4584822842 -0.2639877370
