17
Molecule 1898 / 7211 from QM7b dataset
O -2.3722730003 0.3536589537 -0.7199614455
C -0.9417394503 0.2787330837 -0.6894590755
C -0.3832921303 1.4063589837 0.1829830045
C 1.0481697897 0.9441947537 0.4697266745
C 0.9371379797 -0.5846560563 0.6899342645
O 2.1068669997 -1.3122408363 0.2983233645
C -0.3736190003 -1.0026654163 -0.0425198255
H -2.6965602803 -0.3284528363 -1.3325104555
H -0.5436525703 0.3929509537 -1.7176887455
H -0.9777692103 1.4506421637 1.1106222245
H -0.4454272003 2.3900954937 -0.3017152355
H 1.6848858797 1.1249490237 -0.4151589055
H 1.5243148897 1.4591852737 1.3147666945
H 0.8455637197 -0.8040816663 1.7639016545
H 2.3022286797 -1.0787492663 -0.6274225355
H -0.1748702803 -1.8091333963 -0.7635796155
H -1.1154087503 -1.3805427763 0.6778993145
