14
Molecule 1686 / 7211 from QM7b dataset
N -2.9109452230 -0.0506592872 -0.0117255409
C -1.7781454830 -0.0036864572 -0.2895333809
C -0.3602775630 0.0365839528 -0.6197247209
C 0.4054139270 1.2521345228 -0.0028482909
C 1.5923101870 0.5864548728 0.7243010091
O 1.7535988370 -0.7006308172 0.1122836391
C 0.4309974970 -1.1868004572 -0.0670631809
H -0.2691338130 0.0577497228 -1.7158113209
H -0.2287595530 1.8258916928 0.6840275691
H 0.7427739070 1.9241823428 -0.8013681909
H 2.5403370370 1.1277072528 0.6152725591
H 1.3690877070 0.4649440228 1.8010107791
H 0.4618176270 -2.0334586272 -0.7634352409
H -0.0100884330 -1.5154734672 0.8933249091
