19
Molecule 5864 / 7211 from QM7b dataset
C -3.1785640005 -1.1550183778 -0.4369193584
C -1.9111680205 -0.3944084078 -0.0696482684
N -0.7237223905 -1.1955483178 -0.3504914984
C 0.5376854595 -0.6574384978 -0.2597065884
N 0.7588471895 0.5963944522 -0.1072182184
C 2.1481763695 1.0256039422 -0.1129197084
C 2.5010007195 1.7818258322 1.1691236116
H -4.0644633305 -0.5380852578 -0.2358983384
H -3.2807921205 -2.0791661478 0.1537211416
H -3.1835289305 -1.4257805978 -1.5024592484
H -1.9325620105 -0.0880789278 0.9929319516
H -1.8227111805 0.5338916722 -0.6526036084
H -0.7953766005 -2.1945007078 -0.1794580984
H 1.3420772995 -1.4119033278 -0.3709501384
H 2.2986323495 1.6998076222 -0.9751284384
H 2.8486466595 0.1730061722 -0.2507221584
H 1.8216669195 2.6346074822 1.3092533716
H 3.5331196795 2.1599391822 1.1278016016
H 2.4066345095 1.1269529522 2.0479018516
