18
Molecule 5644 / 7211 from QM7b dataset
C -2.3271218607 -1.4016306998 0.6302195750
C -0.7899497407 -1.3293966398 0.5274412450
N -0.2135025307 -2.1258025098 -0.5646489250
C -0.3397407507 0.1089761102 0.4529193750
C 0.5487850993 0.6176101202 -0.4126566150
C 0.9524405193 2.0601801002 -0.4335339050
O 2.3642721893 2.2357788802 -0.2109189550
H -2.7029742907 -0.8271542498 1.4912622650
H -2.6577291307 -2.4438881698 0.7492392850
H -2.7931797907 -0.9923840998 -0.2795257950
H -0.3776924607 -1.7471689298 1.4668539950
H -0.6283779307 -1.8277183998 -1.4539502250
H -0.4767480607 -3.1065781898 -0.4435147050
H -0.8162225707 0.7812904902 1.1777114150
H 1.0512852693 -0.0452393598 -1.1242884050
H 0.3590892793 2.6346300702 0.3031377150
H 0.7701698593 2.5031282902 -1.4256886350
H 2.5862404293 1.7310351302 0.5923191550
