15
Molecule 5680 / 7211 from QM7b dataset
N -0.6921907625 -2.1872851588 -1.4900393079
C -0.6552206525 -1.6004066188 -0.1452477579
C 0.4337151675 -0.5353035588 -0.0724124079
C 0.1621380175 0.8067780612 -0.8078407079
C 0.2590938775 1.4702563612 0.5868899921
O 0.2164803875 2.6002076712 1.0300911521
N 0.4504959775 0.2361170512 1.1863633421
H -1.5152848225 -2.7836091188 -1.5909935979
H 0.1194953375 -2.7929988988 -1.6355527979
H -0.4923876225 -2.3329647988 0.6727726021
H -1.6247848625 -1.1149700288 0.0503265121
H 1.4188474775 -0.9696978688 -0.3191036579
H -0.8197693925 0.8766270112 -1.2918414179
H 0.9430591675 1.1363845512 -1.5033597179
H 0.7324866575 -0.0102009288 2.1344199121
