15
Molecule 5384 / 7211 from QM7b dataset
C -1.3669964464 -1.8127630691 0.9955929938
C -0.9427454264 -1.1791779291 -0.3296593962
N -0.5970063464 0.2317881309 -0.2058058262
C 0.7006985636 0.6825953309 -0.2301158662
C 0.8705699736 2.1798762709 -0.0290080762
O 1.6648786936 -0.0635664891 -0.4058111162
H -1.6137246864 -2.8742698491 0.8490914438
H -2.2553716764 -1.3168746891 1.4146650238
H -0.5550139164 -1.7468989091 1.7326457638
H -1.7401987564 -1.2854901191 -1.0823266562
H -0.0422263464 -1.6719226091 -0.7206419862
H -1.3367321964 0.9000377409 -0.0132324662
H -0.0759461764 2.7331959709 0.0362901338
H 1.4640154136 2.5783794109 -0.8618485962
H 1.4460532336 2.3466744309 0.8916291238
