17
Molecule 5449 / 7211 from QM7b dataset
C -2.5948191464 -1.0956196559 2.0089483800
C -1.3173134964 -1.2355210259 1.1795229400
C -0.8800224464 0.0889696241 0.5740990300
O 0.3137911036 -0.1207230159 -0.1821145800
C 0.7699082436 1.0941410841 -0.7754835300
C 1.9850957836 0.8587917941 -1.5428262400
C 2.9975418236 0.7019278741 -2.1913940600
H -2.8932970764 -2.0622038159 2.4371367100
H -3.4341348164 -0.7303372259 1.3976500300
H -2.4583988864 -0.3910170559 2.8434966400
H -1.4668365564 -1.9611715459 0.3646981600
H -0.4965438764 -1.6242170959 1.8025136600
H -0.6964127864 0.8380296941 1.3728759000
H -1.6776217664 0.4968913741 -0.0818723500
H 0.9699889536 1.8550137841 0.0073680600
H -0.0110596364 1.5151190741 -1.4423334200
H 3.8916430536 0.5535387741 -2.7618158700
