19
Molecule 6389 / 7211 from QM7b dataset
C -2.3671641860 0.1082168771 1.3552092695
C -2.1271293960 0.4351661671 -0.1208830205
C -0.7149387260 0.9523737571 -0.4010844605
C 0.3827482040 -0.1032845029 -0.2936920705
O 0.1395006640 -1.3007993929 -0.3498494105
C 1.8027119840 0.4245123171 -0.1345965905
C 2.8849992440 -0.6411905329 -0.2631630205
H -3.3947271060 -0.2461948629 1.5193748895
H -2.2159519960 0.9953253571 1.9902986195
H -1.6850260860 -0.6809099329 1.7017615295
H -2.8533998360 1.1921895371 -0.4566874805
H -2.2971313760 -0.4655196529 -0.7304408705
H -0.4612526760 1.8068650871 0.2501871895
H -0.6475333160 1.3454542371 -1.4325776505
H 1.8447755640 0.9137955971 0.8559424195
H 1.9487314140 1.2459233971 -0.8578460405
H 2.7329960840 -1.4425400829 0.4717544695
H 3.8810668240 -0.2064085429 -0.1054519605
H 2.8640844540 -1.1063494929 -1.2582604705
