17
Molecule 5519 / 7211 from QM7b dataset
O -1.4182379729 -0.1536138005 1.0152895740
C -0.1259981129 0.2669574295 0.5230559940
C -0.0591258929 -0.1604390905 -0.9529427360
C -0.1538692029 -1.6469421005 -1.1392603760
C 0.7710457371 -2.3954545405 -1.7511761260
C 0.0380524571 1.7515101795 0.6904681240
C 0.9940085671 2.3227711495 1.4323982240
H -1.4855600229 0.1514402595 1.9368878140
H 0.6777891571 -0.2540593205 1.0790261240
H 0.8787233071 0.2196229895 -1.3861599260
H -0.8950766329 0.3374904895 -1.4761595260
H -1.0497203229 -2.1220235905 -0.7279015960
H 1.6788823871 -1.9532963005 -2.1711550160
H 0.6511353771 -3.4746326605 -1.8588868360
H -0.7063367229 2.3683227695 0.1734245440
H 1.7396228371 1.7194676295 1.9577393940
H 1.0717631071 3.4061599795 1.5356098040
