14
Molecule 1079 / 7211 from QM7b dataset
C -1.0170342975 -0.0060652779 -1.0388551069
C -0.5626672475 1.0095351221 0.0361314131
C -0.9492380875 -0.0447919479 1.1003090831
C -0.5677634075 -1.0854636079 -0.0016418369
C 0.9340469725 -1.0912521379 -0.0493249669
N 1.6332445525 -0.0061790279 -0.0520665569
O 0.8808412425 1.1839727021 -0.0064098069
H -2.1079109875 0.0144248321 -1.1550440769
H -0.5177699475 0.0185947921 -2.0157663169
H -0.9630410275 2.0303667621 0.0673000931
H -0.3891666475 -0.0548824279 2.0439479731
H -2.0305586075 -0.0298072779 1.2859127531
H -1.0157351575 -2.0859526879 -0.0055437069
H 1.5206769725 -2.0130453179 -0.0847738769
