17
Molecule 3683 / 7211 from QM7b dataset
C -1.9455882696 -0.3149894727 0.8350254525
C -0.4187313396 -0.3032842827 0.7669383725
N 0.1191640404 -1.4213884327 -0.0374765575
C 0.4392575004 -0.8851751927 -1.2794774675
N 0.4927756004 0.3971793673 -1.3783373375
C 0.1592042204 0.9161365373 -0.0282410375
C 1.4072382604 1.5211800373 0.6179279725
H -2.3077860196 0.5395735573 1.4260859825
H -2.3225413096 -1.2322756827 1.3126167225
H -2.3786072496 -0.2426301327 -0.1739069075
H 0.0035429004 -0.3421608927 1.7844992425
H -0.3658471596 -2.3166203727 -0.0057120475
H 0.6776792704 -1.5609964027 -2.1056797975
H -0.6094609096 1.7013687573 -0.1310031175
H 2.1804259004 0.7515389273 0.7592211325
H 1.1680943504 1.9609585673 1.5978699125
H 1.8226405104 2.3075013773 -0.0263336175
