19
Molecule 7080 / 7211 from QM7b dataset
C -2.9380803616 -0.8054120550 -0.1733849716
C -1.4130020516 -0.9106318250 -0.2146737916
C -0.7302946816 0.4536219050 -0.3580808516
C 0.8086844484 0.3901204050 -0.4024658416
C 1.4195742084 1.7665397050 -0.7201200916
C 1.3433001984 -0.0716280950 0.9373250384
O 2.0600138884 -1.0364995350 1.1263802084
H -3.4064717116 -1.7946721350 -0.0758773316
H -3.3305434416 -0.3387534250 -1.0900525916
H -3.2713926416 -0.1930199650 0.6783441784
H -1.1059871816 -1.5567274850 -1.0546945616
H -1.0524802316 -1.4144089050 0.6979669884
H -1.0409310416 1.1141239850 0.4731305184
H -1.0815495216 0.9463899550 -1.2811318816
H 1.1331014784 -0.3456669550 -1.1560392716
H 1.1718908084 2.5019331550 0.0612010784
H 1.0225255084 2.1451633450 -1.6725999116
H 2.5137551584 1.7110094550 -0.8024543416
H 1.0268811484 0.5809650150 1.7995685184
