14
Molecule 478 / 7211 from QM7b dataset
O -2.5140202198 0.2432966975 -0.6088470279
C -1.3621385898 -0.4216428225 -0.1461810979
C -0.6914296598 -1.3577810125 -1.1139720979
C -0.0157897898 -0.0706767525 -0.7246606879
O 1.1406613002 -0.2141395325 0.0785676721
N 1.2878660202 0.9403686475 0.8904121321
C 2.3461270502 0.8587705275 1.6064550021
H -2.5442926798 1.1136544475 -0.1717163379
H -1.3703276298 -0.7257009025 0.9064349621
H -1.0959985398 -1.4124188425 -2.1244058779
H -0.2823993398 -2.2850780325 -0.7134506979
H 0.0316606602 0.7371241075 -1.4600950779
H 2.5455992902 1.7046900475 2.2648497721
H 3.0269533902 -0.0001283125 1.5778864721
