14
Molecule 598 / 7211 from QM7b dataset
O -1.8894760132 -1.4423032530 0.6570105823
N -0.6035644232 -1.5698408830 0.0496425323
C -0.0293639432 -0.4274013630 -0.0313123577
C 1.3529175168 -0.2794483030 -0.6452697477
C 1.5762947868 1.2108505170 -0.5775991277
C 0.5483695268 1.8578852270 -0.0084995677
C -0.5572980832 0.9226831970 0.4098787023
H -2.2004607232 -2.3646369630 0.6427234723
H 1.3860443968 -0.6711046430 -1.6756828477
H 2.1122738268 -0.8441550030 -0.0772425077
H 2.4839902068 1.6834742870 -0.9538223677
H 0.4970501268 2.9362365770 0.1458858423
H -0.7547301732 0.9365416070 1.4967382323
H -1.5289274132 1.1435406970 -0.0653696177
