17
Molecule 7073 / 7211 from QM7b dataset
O -1.4562552246 0.1321121726 1.3356495532
C -0.0264396746 0.1686645526 1.1987725832
C 0.4196475254 -1.1965909674 0.6648192032
C 0.0369851954 -1.3491512874 -0.8130131268
C 0.5315532554 -0.1486722574 -1.6167186668
O 0.0300497554 1.0898182426 -1.0920370468
C 0.4476996854 1.2781088926 0.2568473132
H -1.7996274246 1.0299435226 1.1873684232
H 0.4369439954 0.3511666026 2.1897120632
H -0.0357032346 -1.9883368974 1.2777561832
H 1.5135696254 -1.2780758574 0.7852076932
H 0.4652960654 -2.2730753174 -1.2326433768
H -1.0574921146 -1.4164439574 -0.9049168568
H 1.6423883754 -0.1197914674 -1.6195158568
H 0.1879893854 -0.1888705474 -2.6598349368
H 1.5559148954 1.3381833626 0.3156154132
H 0.0436882654 2.2557036326 0.5681073632
