18
Molecule 318 / 7211 from QM7b dataset
C -3.4532837348 -0.7466823883 -0.1389879753
C -1.9984395648 -0.7226583683 -0.1749892953
C -0.7837514048 -0.6927424583 -0.2126544853
C 0.6766083152 -0.6960359183 -0.2523336453
N 1.2717122052 0.6478201317 -0.1870816753
C 0.9568026352 1.3114490717 1.0745704247
C 2.7136010652 0.5629857317 -0.3864657153
H -3.8626403548 0.2744726917 -0.1197126053
H -3.8244644148 -1.2732297183 0.7529998947
H -3.8651744948 -1.2530610383 -1.0247489753
H 1.0089479952 -1.1607993783 -1.1961360053
H 1.0581961352 -1.3492681483 0.5702512847
H -0.1327491748 1.3716580217 1.1962047747
H 1.3634141252 2.3325495317 1.0610796947
H 1.3793663752 0.7796071417 1.9577610247
H 2.9307356052 0.1065899617 -1.3633646753
H 3.2292843952 -0.0354975483 0.3995829747
H 3.1438745052 1.5743435417 -0.3791815053
