15
Molecule 6682 / 7211 from QM7b dataset
C -2.5241171198 -1.3792011017 0.0725089678
C -1.0224222398 -1.1824019917 -0.0144354522
O -0.2496097298 -2.1341178117 -0.1164569022
C -0.5475869798 0.2245769883 0.0327557278
C 0.7702089202 0.5339060183 -0.0128155322
C 1.3013137002 1.8760599083 0.0305935478
C 2.6202953602 2.1543579883 -0.0117766422
H -3.0264483598 -0.8471195217 -0.7501909622
H -2.9090352498 -0.9498935017 1.0104953578
H -2.7665362698 -2.4460562617 0.0261119178
H -1.2991450298 1.0169636783 0.1093018878
H 1.4792724502 -0.2989265617 -0.0869322022
H 0.5801603502 2.6975141783 0.1013909578
H 3.3635764202 1.3570705983 -0.0821896022
H 2.9888836802 3.1796030283 0.0226841578
