13
Molecule 367 / 7211 from QM7b dataset
O -2.2453487053 -2.4842724398 -0.8694594721
C -1.3505172953 -1.9298515098 -0.2453275921
C -0.8093389553 -0.6058889698 -0.5700426521
C 0.1591900547 -0.0481299298 0.1855028179
C 0.7433600247 1.2760056002 -0.0542893121
C 1.1937009047 2.1209467202 1.0802844279
O 2.1494731547 1.4210288002 0.2818819479
H -0.8732398653 -2.4226165498 0.6423005279
H -1.2295568453 -0.0975513598 -1.4424874821
H 0.5607463347 -0.6000331398 1.0438168179
H 0.4468102747 1.7865418902 -0.9773464821
H 1.0714300447 1.7524456402 2.1046862679
H 1.1724460647 3.2086711702 0.9528844079
