15
Molecule 1667 / 7211 from QM7b dataset
C -1.9375405346 -0.6769594777 0.3568011624
C -0.4915040146 -0.9823886077 0.5747872724
C 0.0519708354 -2.1753551077 0.8233678024
O 0.3631777954 0.1487314323 0.6251900824
C 0.5588793454 0.8634296623 -0.5383301876
C 1.4456530854 2.0513216823 -0.2657758076
O 0.0880426954 0.5550810923 -1.6127737476
H -2.2903385746 0.0523251123 1.1019708024
H -2.5360812746 -1.5909900977 0.4483912524
H -2.0966319046 -0.2458775877 -0.6410856376
H -0.5757366146 -3.0635178677 0.8694269624
H 1.1235860554 -2.2827460777 0.9842938424
H 2.4196488654 1.7114500423 0.1115164924
H 0.9998432654 2.6874644823 0.5103883824
H 1.5811939554 2.6211028923 -1.1893342276
