11
Molecule 133 / 7211 from QM7b dataset
C -2.4527964850 0.1543671664 0.0050814014
C -0.9716990950 0.1011827464 0.0016568214
N -0.2576653450 -0.9740234036 0.0004399014
C 1.1179289250 -0.4926350536 -0.0021587786
O 2.0932876750 -1.1946237336 -0.0034938586
N 1.1720626450 0.9901913964 -0.0027493786
C -0.0662466150 1.3230310464 -0.0004108386
H -2.8821955250 -0.8526282636 0.0005442614
H -2.8144287850 0.7137152864 -0.8722185286
H -2.8100494750 0.7031389964 0.8909145914
H -0.4035290950 2.3639124664 -0.0001347486
