21
Molecule 6699 / 7211 from QM7b dataset
C -2.1189488336 -1.5056455146 -0.1013414219
C -0.5933751936 -1.3988469346 -0.0852105619
C -0.0229345836 0.0371780054 -0.0129953419
C -0.5035711436 0.8974325954 -1.1828165819
O -0.5227099636 0.7072329654 1.1732392481
C 1.5207042864 -0.0466111846 0.0412935081
C 2.2529253064 1.2902429754 0.1666913581
H -2.4327986936 -2.5553959646 -0.0127958219
H -2.5483930636 -1.1137226546 -1.0341620619
H -2.5608497636 -0.9450746946 0.7344107081
H -0.1717226236 -1.8968874646 -0.9748455919
H -0.1980271636 -1.9551238446 0.7845443281
H -0.1751471536 0.4683954554 -2.1401582519
H -0.1071055036 1.9174652554 -1.1007440819
H -1.5988233036 0.9667761954 -1.1864974919
H -0.2329653136 0.1852216054 1.9432172581
H 1.8719711864 -0.5854808946 -0.8550936219
H 1.7864938264 -0.6898232246 0.9002667481
H 2.1536331664 1.9000750054 -0.7423925619
H 3.3268596164 1.1271345754 0.3351766381
H 1.8597554664 1.8760772754 1.0094340681
