18
Molecule 6549 / 7211 from QM7b dataset
C -2.3644481535 0.3735745850 -0.4442527226
C -0.8456391335 0.3630749450 -0.4464842826
C -0.0717538535 1.3903170450 0.4309926574
C 0.9798793265 0.2992320950 0.7483412374
O 2.1202971765 0.3221957950 -0.1235812326
C -0.0829436935 -0.7650640150 0.3399971474
N 0.4304415365 -1.9822676650 -0.2469003226
H -2.7726006235 -0.4891262450 -0.9938378026
H -2.7674634235 1.2836637550 -0.9148033126
H -2.7538277135 0.3300125450 0.5854682374
H -0.4696157835 0.3942009550 -1.4842256426
H -0.6442953035 1.6714887750 1.3280353674
H 0.3040083865 2.3111633750 -0.0408949726
H 1.3789314765 0.2345010050 1.7702722574
H 1.9050082365 0.8843063250 -0.8877731426
H -0.6813504835 -1.0189141750 1.2341180674
H 1.1421779565 -1.7500693050 -0.9449533926
H -0.3070078435 -2.5197276450 -0.7060177626
