15
Molecule 347 / 7211 from QM7b dataset
C -1.1961681018 -0.7169387655 -0.5382499429
O -1.2021156818 0.7421012145 -0.4851796429
C -0.0367030218 1.0875159045 0.3036599171
C 1.2080105582 0.7180773245 -0.5094886729
O 1.2127876282 -0.7410724955 -0.4595070029
C 0.0298441982 -1.0881731555 0.3020799271
C -0.0156533618 -0.0015116855 1.3848289671
H -1.0844922218 -1.0522587455 -1.5806402229
H -2.1425890718 -1.1029445855 -0.1220994529
H -0.1191465218 2.1365401545 0.6104151771
H 2.1447426582 1.1031540645 -0.0711404829
H 1.1200254982 1.0556607045 -1.5534204129
H 0.1053883382 -2.1378717855 0.6082962371
H -0.9279129018 -0.0036090155 1.9943358271
H 0.8826270282 -0.0007182755 2.0147653271
