14
Molecule 3600 / 7211 from QM7b dataset
C -0.4794466352 -2.3802767386 -0.2280994498
O -1.4507077052 -1.3540142186 0.0029187802
C -0.9781681052 -0.0843458086 0.1007268002
C 0.3028652148 0.3434684614 0.0071376202
C 0.6497565048 1.7433400114 0.1339563902
C 1.8988119448 2.2440178414 0.0507198802
H -1.0396316652 -3.3200580486 -0.2788607798
H 0.2487788648 -2.4237829486 0.5975943502
H 0.0519506448 -2.2106073186 -1.1782258298
H -1.8034279752 0.6103152714 0.2762492002
H 1.1164542148 -0.3638536086 -0.1686164898
H -0.1828103552 2.4341672014 0.3111072002
H 2.7616189748 1.5972502714 -0.1248541698
H 2.0898153948 3.3114603314 0.1556088302
