17
Molecule 3948 / 7211 from QM7b dataset
C -2.0728004377 -0.0048663319 -0.7091196316
C -0.5522677077 -0.0230395219 -0.6207067916
C 0.0736123723 1.2243396281 0.0399638084
C 1.3684789423 0.7072104281 0.7240268084
C 1.3677129623 -0.8101126119 0.4419275584
N -0.0573073177 -1.1045718619 0.2480455784
H -2.4585854477 -0.9272365019 -1.1693007916
H -2.4182009377 0.8404859181 -1.3220043316
H -2.5095878077 0.0857982681 0.2963145684
H -0.1346843477 -0.1131673419 -1.6507427416
H -0.6230859477 1.6329617081 0.7871807984
H 0.2679997223 2.0136305381 -0.6994547916
H 2.2753490523 1.1869575781 0.3308468784
H 1.3367502123 0.8980305781 1.8055520784
H 1.9763186923 -1.0205008619 -0.4645676816
H 1.7815979423 -1.4028528219 1.2710415984
H -0.2011366977 -2.0232935719 -0.1777351416
