17
Molecule 6352 / 7211 from QM7b dataset
C -0.5059402379 -2.2583173416 1.3711689852
C -0.4974632579 -1.7481407016 -0.0799231948
C -0.0734324579 -0.3192817516 -0.2189442748
C 1.0096716121 0.1610475284 -0.8491213648
O 1.1803084421 1.5262435084 -0.8066897848
C -0.0459152179 2.0569618884 -0.2067683148
C -0.7904084079 0.8602537384 0.4176333452
H -0.8293051679 -3.3082979116 1.4149676852
H -1.1935504379 -1.6733154716 1.9995384052
H 0.4969888821 -2.1894440516 1.8170992952
H -1.5108607479 -1.8748933716 -0.5037144848
H 0.1687630721 -2.3808854516 -0.6878677548
H 1.7938897321 -0.3725047016 -1.3847816048
H -0.6291764779 2.5220879184 -1.0178711048
H 0.2488802321 2.8309041184 0.5133490752
H -1.8661020379 0.8820164684 0.1803680552
H -0.7010667779 0.8392442284 1.5181596252
