14
Molecule 1025 / 7211 from QM7b dataset
N -0.0173140939 -2.0483725941 -0.2719029405
C -0.3919735639 -0.7304486341 -0.0123763105
N -1.5801893539 -0.3136384241 0.2634252295
C 0.7528712461 0.2319623859 -0.0170695705
C 0.5464966061 1.5970931059 -0.6581575205
C 0.6585715961 1.4843764659 0.8314405095
H 0.8397254861 -2.1878422641 -0.8009281505
H -0.7650810439 -2.6877370241 -0.5280122605
H -2.2709405539 -1.0729449541 0.2136986795
H 1.7440591661 -0.2144078141 -0.1215316405
H -0.4486358439 1.7737120459 -1.0669753205
H 1.3800097361 2.0179812159 -1.2212508905
H 1.5719181961 1.8275977759 1.3175603195
H -0.2643263139 1.5798182059 1.4037605895
