16
Molecule 6163 / 7211 from QM7b dataset
C -1.9334821194 -0.1225141136 0.3951873563
C -0.4367806594 -0.3856502636 0.1761379163
C -0.1999578794 -1.1767914136 -1.0343382237
C -0.0164496894 -1.8492172736 -2.0275657637
N 0.2798767306 0.9045365964 0.0827278663
C 0.7399950906 1.4388751964 1.3723436863
C 1.7095320306 0.8467147464 0.4048446063
H -2.0803680294 0.4464219864 1.3235907963
H -2.4833346894 -1.0692626136 0.4697075963
H -2.3365807394 0.4593842264 -0.4434824737
H -0.0531060994 -0.9793491936 1.0377678563
H 0.1476577206 -2.4362800636 -2.9080043437
H 0.5230240006 0.8570342464 2.2751373263
H 0.6592457806 2.5217653564 1.4868350563
H 2.3514532306 1.4887867664 -0.2013512937
H 2.1357310706 -0.1287581536 0.6610469463
