16
Molecule 5269 / 7211 from QM7b dataset
C -1.9561156515 -0.2525115398 0.2962356655
C -0.4371379715 -0.4714822998 0.1492906155
C -0.1254555315 -1.2439395398 -1.0544123845
C 0.1133322085 -1.8618282098 -2.0720962745
C 0.3150794985 0.8569768402 0.1439918955
C 0.6587796885 1.5559660102 1.4112297255
N 1.6991803085 0.8315520302 0.6459822555
H -2.1716397415 0.2987032702 1.2221687555
H -2.4852532215 -1.2135987198 0.3265564155
H -2.3493722115 0.3241199202 -0.5528597445
H -0.0678309915 -1.0401234698 1.0212836755
H 0.3348769685 -2.4171420798 -2.9602934145
H 0.0983698085 1.4896031302 -0.7239781945
H 0.4028027385 1.0953369902 2.3693965855
H 0.6573059785 2.6489624702 1.4115989655
H 2.2755850685 1.4941867102 0.1188157055
