16
Molecule 1964 / 7211 from QM7b dataset
C -1.7273902510 0.7020678350 1.3875834966
O -0.7818159310 -0.3255299450 1.0500977266
N -0.3355955210 -0.1464398850 -0.2889248334
C -1.0744439610 -0.9489591350 -1.2516042834
C 1.0259961090 0.0953849550 -0.4508554334
C 1.7686588890 0.5607271750 0.7829897666
O 1.5553588590 -0.0323526550 -1.5539312734
H -1.2721436610 1.7021885550 1.3167428566
H -2.0179233010 0.4948922350 2.4252407466
H -2.6196196610 0.6565881050 0.7429653766
H -1.0549549810 -2.0140691550 -0.9714821434
H -0.5858780410 -0.8155311950 -2.2224958534
H -2.1151225310 -0.6038568350 -1.3126352934
H 1.8133315690 -0.2443382650 1.5293893366
H 1.2745142690 1.4174511050 1.2601040466
H 2.7816968490 0.8394904650 0.4766318566
