17
Molecule 5365 / 7211 from QM7b dataset
C -0.9830492425 1.6398478526 -1.8145578284
C -1.0845007325 0.5312746926 -0.7788404084
O -1.3963869625 -0.6839286274 -1.4719792584
C 0.2119669675 0.3854531926 0.0071680016
O 0.0190030375 -0.6846216174 0.9494100416
C 1.0872656575 -1.0086217974 1.7350597416
C 2.3011480175 -0.4387765574 1.7590913916
H -0.8001637025 2.6108891926 -1.3337734384
H -1.9204424825 1.7050882626 -2.3815164584
H -0.1676552825 1.4332971826 -2.5226169884
H -1.8939564925 0.7691287826 -0.0596139084
H -1.3495355625 -1.3998069374 -0.8118444284
H 0.4535880475 1.3176729526 0.5482042116
H 1.0449030175 0.1311628226 -0.6728470184
H 0.8220588175 -1.8405431374 2.3911380516
H 2.5924817475 0.3912106926 1.1186089216
H 3.0408092875 -0.8247621574 2.4572894016
