12
Molecule 2351 / 7211 from QM7b dataset
C 0.6842494578 1.1661265096 0.0201271260
O -0.6287955922 1.1233662296 -0.5613898240
C -1.3521140122 0.0150557196 -0.0023374340
C -0.3060259822 -0.9616712904 0.4805237460
O 0.7110312678 -1.2480615704 -0.5046806440
C 0.9736256678 -0.2383929604 0.4945954760
H 1.3757862178 1.5245588696 -0.7568685940
H 0.7255655078 1.8569114296 0.8864507460
H -1.9798229122 0.3277101996 0.8565078860
H -2.0025605522 -0.3852707504 -0.7942197140
H -0.5561023622 -1.7670046904 1.1767457760
H 1.7808379078 -0.4460502004 1.2024941560
