19
Molecule 1449 / 7211 from QM7b dataset
C -3.0186273188 -1.8131629350 0.6763622283
C -1.5129871688 -1.6691398550 0.4469457683
C -1.0799208688 -0.2244984450 0.1797592983
C 0.4251940212 -0.0751290950 -0.0494813517
C 0.8400870012 1.3858685650 -0.3159767217
C 2.2717087312 1.5518156750 -0.5339965217
C 3.4676799812 1.6639121150 -0.7121352917
H -3.2987471188 -2.8592984650 0.8656420983
H -3.5895209388 -1.4680109150 -0.1994185517
H -3.3482018588 -1.2177029650 1.5417542783
H -1.2063929288 -2.3019029050 -0.4037572817
H -0.9664887888 -2.0543584150 1.3250250183
H -1.3871976388 0.4101407750 1.0308013283
H -1.6259283688 0.1611304050 -0.7003652617
H 0.7399381912 -0.6961692750 -0.9039000517
H 0.9792231712 -0.4486992450 0.8270157883
H 0.5289225012 2.0177311950 0.5340249683
H 0.2943085812 1.7684184350 -1.1959441717
H 4.5212789312 1.7707252250 -0.8697426117
