15
Molecule 20 / 7211 from QM7b dataset
C -1.8811462035 -1.2134956468 -0.7476481509
O -0.4908326035 -1.1097796368 -0.4181430709
C -0.0131085535 0.2231076432 -0.5179040209
O -0.5662821735 1.0963923832 0.4561019191
C -0.2053834435 0.7771096432 1.8098528891
C 1.4555392565 0.1682252032 -0.4745292209
C 2.6675260365 0.1910124632 -0.4620155909
H -2.1336809835 -2.2780883268 -0.6819786209
H -2.0698380735 -0.8565162168 -1.7759218709
H -2.5088831835 -0.6395357968 -0.0482390809
H -0.3390518935 0.6714100232 -1.4768809909
H -0.7400216435 1.4982291832 2.4384608691
H 0.8802769465 0.8843538932 1.9651806091
H -0.5109788335 -0.2461805368 2.0761850391
H 3.7385333265 0.1976699732 -0.4470121709
