15
Molecule 6986 / 7211 from QM7b dataset
O -1.9013766836 -0.5018511565 0.2145949307
C -0.5587473036 -0.2760683265 0.7141341907
C 0.2723550764 -1.4852830965 0.3728841107
C 1.2004780364 -1.2061127965 -0.5536954793
C 1.1748835964 0.2407410835 -0.9768392493
C 0.1709059164 0.8516089035 -0.0145876093
C -0.0227271336 2.1533853335 0.2229126207
H -2.3909751236 0.3323953735 0.3317830807
H -0.6051741436 -0.0841299665 1.8034411707
H 0.0817263264 -2.4641381765 0.8118225307
H 1.8979580064 -1.9301113765 -0.9776103993
H 2.1608047564 0.7271594335 -0.8997279393
H 0.8598502264 0.3413540235 -2.0309956393
H 0.5138900164 2.9284307135 -0.3279454993
H -0.7299557236 2.4942226235 0.9836217407
