13
Molecule 2213 / 7211 from QM7b dataset
O -1.0061000090 -2.6664220514 0.3052473366
C -1.0043122890 -1.5675672214 -0.2204195234
C 0.1419430410 -0.6333301614 -0.2264559834
C 0.3239682110 0.2800901486 -1.4233465834
C -0.1957675990 0.8749856486 -0.1447807534
C 0.6262878810 1.7177574886 0.6709770566
C 1.3232506910 2.4324869186 1.3628431666
H -1.9150678490 -1.1816333914 -0.7569504734
H 1.0317325510 -0.9648531514 0.3085743666
H -0.3824753990 0.1776598686 -2.2484157034
H 1.3502685210 0.5070011386 -1.7072004434
H -1.2653049390 1.1040141386 -0.1238275634
H 1.9374275710 3.0626508786 1.9729368466
