16
Molecule 5184 / 7211 from QM7b dataset
C -1.8165752539 -1.4981046708 -0.0781200682
N -0.4437987839 -1.0114026108 0.0515645318
C -0.2214029039 0.3418866092 -0.4295053582
C -0.4119818239 1.3534592292 0.7211330918
O 0.3456955561 0.9502595092 1.8493921518
C 1.1688155061 0.4659968692 -1.0290042582
O 1.8853927461 -0.4836824608 -1.2841103482
H -1.8625777139 -2.5419126908 0.2591719118
H -2.2092920839 -1.4466854308 -1.1133103482
H -2.4891999339 -0.9151385508 0.5681807918
H 0.2230847461 -1.6304213408 -0.4196896282
H -0.9103538439 0.6333159492 -1.2591311882
H -1.4903129239 1.4308625992 0.9603080418
H -0.0673594639 2.3542935092 0.4145737718
H 0.2589146161 -0.0305269008 1.8467807518
H 1.4918485261 1.5139865292 -1.2471106982
