19
Molecule 6332 / 7211 from QM7b dataset
C -1.9452051448 -1.3949017175 0.1939043692
C -0.4448563348 -1.1059320875 0.0711878292
N 0.1684723652 -1.6274873775 -1.1745038408
C -0.0697155548 0.3652648625 0.2034316992
C -0.9460725648 1.3714348925 0.0755095092
C 1.4000693952 0.6037289825 0.4787099992
N 1.7990777552 2.0101334825 0.3331695992
H -2.3572286448 -1.0198465075 1.1427916592
H -2.1219728448 -2.4796646275 0.1507531992
H -2.5091280648 -0.9341565275 -0.6316215708
H 0.0672385052 -1.6379207375 0.8964078292
H -0.3100585948 -1.2014019975 -1.9746352708
H -0.0047301448 -2.6343532875 -1.2415702908
H -2.0057470648 1.1966499125 -0.1106161108
H -0.6096804948 2.4035680125 0.1799831492
H 1.9707829052 -0.1024686775 -0.1541194208
H 1.5985156652 0.3078508325 1.5254409592
H 1.7721444152 2.2680843525 -0.6579000908
H 2.7716947452 2.1175669225 0.6279652092
