15
Molecule 5375 / 7211 from QM7b dataset
C -2.0323499900 -2.0613851497 0.5520396770
C -0.5822028800 -1.5974076597 0.4938887570
N -0.4936132400 -0.2115753997 0.0188147470
C 0.8666848600 0.3097515403 -0.0136387630
C 0.9304389000 1.6279146603 -0.7626110130
O 1.7160371200 2.5233164203 -0.5162774130
H -2.0912334700 -3.1127110397 0.8651943570
H -2.5121733900 -1.9604785897 -0.4311607830
H -2.6109636800 -1.4678746797 1.2768478870
H -0.0170505200 -2.2245680997 -0.2165382130
H -0.1037641400 -1.7374666597 1.4873288170
H -1.0686804300 0.3813437003 0.6246930470
H 1.4866894400 -0.3942188297 -0.6020424930
H 1.3670064800 0.4257243503 0.9689343570
H 0.1817400900 1.7115059403 -1.5928128530
