15
Molecule 3441 / 7211 from QM7b dataset
C -2.5099732496 -1.2858007128 -0.6451827179
N -1.0668441496 -1.1712422728 -0.4902926879
N -0.6037735696 0.0836760672 -0.3106881479
C 0.6044661404 0.2337389472 0.1706110021
C 1.4945003204 -0.9166327928 0.5792048221
C 1.1018929404 1.5591917672 0.2950675321
C 1.6046538604 2.6595271372 0.4413771621
H -2.7476986496 -2.3009834528 -0.9889430679
H -2.8367907196 -0.5676136728 -1.4067754179
H -3.0619349396 -1.0817524028 0.2891116921
H -0.6264584296 -1.9184750628 0.0569052721
H 1.0300506504 -1.5224103128 1.3773129521
H 2.4551254904 -0.5502332628 0.9553556721
H 1.6873799204 -1.5846597728 -0.2767731979
H 2.0214106404 3.6389453072 0.5542051421
