17
Molecule 1071 / 7211 from QM7b dataset
C -1.4450790833 -1.7907129448 -0.2736466473
C -0.8521532633 -0.7933101948 -1.2586104273
N 0.3596270067 -0.1301849648 -0.7373794173
C 1.0402253467 0.6633455752 -1.7659906573
N 0.0596250967 0.6673088252 0.3770521227
C 0.6296631567 0.4396187452 1.6026891827
O 0.4216867067 1.1253670752 2.5954985927
H -2.3218000433 -2.2812097848 -0.7184210473
H -1.7690253633 -1.2970063948 0.6523954327
H -0.7088676533 -2.5639131548 -0.0132980373
H -1.6143858133 -0.0381762848 -1.5533968673
H -0.5454641333 -1.3107640148 -2.1803701173
H 1.3300759467 0.0008926352 -2.5927445573
H 1.9463541067 1.1072866752 -1.3360581973
H 0.4031814667 1.4758750852 -2.1738976573
H -0.5633811133 1.4794849952 0.2753676127
H 1.2991172867 -0.4489204648 1.5720770527
