13
Molecule 791 / 7211 from QM7b dataset
C -1.4523467847 0.0563703911 -0.0851714253
N 0.0021619053 0.0435171211 0.0047819747
C 0.7058190153 -1.1595631189 -0.0855790853
C 0.1681622353 -2.3785579289 -0.2556768453
C 0.6840022453 1.2373291411 0.1818469847
O 0.1628422053 2.3392279711 0.2723130447
H -1.7792810147 1.0969238911 0.0082670347
H -1.8877596747 -0.5474333189 0.7241265447
H -1.7759907647 -0.3529067589 -1.0530549653
H 1.7876928753 -1.0304868089 -0.0031784653
H -0.9035659847 -2.5493247789 -0.3417747853
H 0.8236087153 -3.2446662189 -0.3113096053
H 1.7836046053 1.0759794711 0.2324282847
