19
Molecule 523 / 7211 from QM7b dataset
C -1.5227871290 0.7608514043 0.1222411648
C -1.5272093390 -0.7571114157 -0.0873088552
C -0.2737305690 -1.4874243157 0.4139995648
C 0.9949830810 -1.1740981657 -0.3849116652
O 1.7329107010 -0.0022548857 -0.0193794952
C 1.0066239610 1.1718885943 0.3618567748
C -0.2792976490 1.4879074443 -0.4078990152
H -2.4244040390 1.1861798843 -0.3480984752
H -1.6093295590 0.9781036143 1.2022513548
H -1.6392216390 -0.9740898557 -1.1650225252
H -2.4188446790 -1.1800760757 0.4037286748
H -0.0992333290 -1.2954437457 1.4863949148
H -0.4463515790 -2.5727445557 0.3239684948
H 1.7232785110 -1.9905240957 -0.2637603152
H 0.7330321510 -1.1315293857 -1.4621808652
H 0.7693699710 1.1308595443 1.4448870548
H 1.7340295110 1.9863408743 0.2232920248
H -0.4471621190 2.5736752043 -0.3143347852
H -0.1299429490 1.2952064043 -1.4839574052
