12
Molecule 4697 / 7211 from QM7b dataset
N -3.0125595428 -0.0074859696 0.1936490100
C -1.8429966628 -0.0445777696 0.1172848800
C -0.4375063228 -0.0364847096 0.0278979300
C 0.3670523772 -1.1202104396 -0.0689523600
O 1.6904801972 -0.8560948196 -0.1237488400
C 1.8334129772 0.6106707304 -0.1818419800
C 0.4377859772 1.2075091504 0.0943578200
H 0.0981542472 -2.1742018996 -0.0961242400
H 2.2028876772 0.8484378604 -1.1892856300
H 2.5923103572 0.8861047204 0.5599168300
H 0.1545641372 1.9566060304 -0.6575297800
H 0.3696687272 1.6827718604 1.0849927300
