18
Molecule 3836 / 7211 from QM7b dataset
C -2.1721494714 -0.0651992257 -0.0118646164
C -0.6508555214 -0.3169924857 -0.0279207364
C -0.2325125214 -1.0959999857 1.2246976836
N -0.2076685614 -1.0857195157 -1.2072334264
C 0.0611840886 1.0678499943 -0.0711843564
C 1.5152935586 1.0289004343 0.0040437736
C 2.7264487586 1.0269115843 0.0849987936
H -2.4862264114 0.4986298643 -0.9043127864
H -2.4872761914 0.5042462343 0.8769006136
H -2.7155516414 -1.0218190857 -0.0083016364
H -0.5030934214 -0.5482633357 2.1387624336
H 0.8518837786 -1.2663320757 1.2222371336
H -0.7403820014 -2.0723267957 1.2554321636
H -0.5427966914 -0.6334587657 -2.0632920764
H -0.6392371814 -2.0140461957 -1.1877943964
H -0.3247211114 1.6850961743 0.7575428436
H -0.2383812214 1.5838720843 -1.0009033564
H 3.7950086786 1.0116166143 0.1477398036
