17
Molecule 5436 / 7211 from QM7b dataset
C -1.9793766070 0.3082347347 -0.4545340527
C -0.4655107270 0.4082667447 -0.4535760627
C 0.2449370030 1.4880299347 0.4019688873
C 1.2677737530 0.3798239847 0.7401628273
N 0.2612764230 -0.6279774553 0.3315803073
C 0.7291678630 -1.8091581553 -0.3670834027
H -2.3161874970 -0.6041462853 -0.9698316627
H -2.4262583670 1.1683977747 -0.9756493527
H -2.3614703070 0.2807410847 0.5760905973
H -0.0837687570 0.4506432347 -1.4990628027
H -0.3578758470 1.7813205647 1.2723935973
H 0.6153394830 2.3806335147 -0.1152459127
H 2.1419440330 0.4117539647 0.0555900173
H 1.6257688430 0.2865420647 1.7772527373
H -0.1294424870 -2.4050918253 -0.7108705227
H 1.3177392530 -2.4386553453 0.3170490373
H 1.3633289830 -1.5674800253 -1.2504070627
