12
Molecule 2109 / 7211 from QM7b dataset
C -1.7789492470 -2.0770486836 0.0023776691
C -0.2435743670 -1.9892084936 -0.0007576009
C 0.2636224730 -0.6275251236 -0.0006636609
C 0.6389541130 0.5346290664 -0.0005925209
C 1.1538687630 1.8758882264 -0.0005090809
O 0.4599208230 2.8859605764 -0.0004362009
H -2.0967388570 -3.1281594436 0.0022358991
H -2.1993483070 -1.5860539636 -0.8846636809
H -2.1956372970 -1.5874365036 0.8919339891
H 0.1681304330 -2.5125686136 -0.8807523709
H 0.1718303430 -2.5141570336 0.8765410991
H 2.2688666930 1.9402809964 -0.0009341609
