13
Molecule 2602 / 7211 from QM7b dataset
C -1.8502943588 -1.3594364480 -0.6067646846
C -0.3396951788 -1.2295021180 -0.4386759646
C 0.1255503012 0.2551620020 -0.3549484146
C -0.4693099988 0.9482099520 0.7976216154
N -0.9848766188 1.4712432720 1.7020999954
C 1.5913907712 0.3534927220 -0.3229927046
N 2.7558389112 0.3912886520 -0.3318644946
H -2.1310018488 -2.4188502580 -0.6703940446
H -2.1973451288 -0.8659434180 -1.5265995046
H -2.3906932988 -0.9192434580 0.2427125554
H 0.1907718212 -1.6804529080 -1.2893981746
H 0.0027909412 -1.7467163080 0.4688656354
H -0.2171077488 0.7859262220 -1.2622740546
