17
Molecule 6601 / 7211 from QM7b dataset
C -2.6294649811 0.4023546173 -0.0105280405
C -1.1356755511 0.3769901373 -0.0052992505
C -0.2675535011 1.4222488773 -0.0080266305
C 1.1108382389 0.9277264573 -0.0015049805
C 1.1163176989 -0.4310552227 0.0055356195
C 2.2853291289 -1.3613798927 0.0144231795
C -0.3213770811 -0.8956480827 0.0036148895
H -3.0109709711 1.4325454573 -0.0102660505
H -3.0487778811 -0.1121092727 0.8704869195
H -3.0425406411 -0.1091162227 -0.8962945105
H -0.5464105211 2.4772652373 -0.0141561605
H 1.9967742389 1.5648597573 -0.0021218805
H 3.2348380989 -0.8088861927 0.0114747895
H 2.2814934089 -2.0288234527 -0.8637656805
H 2.2790212189 -2.0149564327 0.9030031695
H -0.5442772311 -1.5286528127 -0.8748573805
H -0.5496334311 -1.5195474127 0.8872080695
