14
Molecule 4641 / 7211 from QM7b dataset
C -2.5975103194 0.2986041594 -0.0137621678
C -1.0996764094 0.2538297994 -0.0054433778
C -0.2456820194 1.3385677794 -0.0010499278
N 1.0608214806 0.8564503394 0.0053764322
C 1.0315933006 -0.5112690106 0.0052345122
O 2.2337964606 -1.1684458406 0.0116154422
C -0.2850350694 -0.9311398706 -0.0014574578
H -2.9609245794 1.3354127994 -0.0065388778
H -3.0234216994 -0.2098468706 0.8654661222
H -3.0133440094 -0.1939492606 -0.9068249378
H -0.4477471094 2.4041189694 -0.0019719478
H 1.9099335606 1.4092201094 0.0102636322
H 2.0489025206 -2.1229915306 0.0110262322
H -0.6316576294 -1.9611070106 -0.0031082678
