17
Molecule 5051 / 7211 from QM7b dataset
C -2.7921736011 -0.2867708118 -1.5733814995
C -1.8031275011 -0.2803902018 -0.4559304695
N -0.5440399811 -0.2479064918 -0.6905667295
N 0.2241927489 -0.2455569018 0.5373319305
C 1.5143735489 -0.9582622118 0.3073984905
C 1.4875184489 0.5222380082 0.3349789305
C 1.9695607089 1.3314628782 1.5106915505
H -3.4244453611 -1.1870509418 -1.5221269195
H -2.2828760711 -0.2577115918 -2.5440603195
H -3.4697090911 0.5776886582 -1.4928113795
H -2.1720270011 -0.3052042018 0.5827007505
H 1.6231276989 -1.4464865118 -0.6628470595
H 1.8637806989 -1.5211725218 1.1756418805
H 1.5559969489 1.0005381482 -0.6468239195
H 1.8132976389 0.7851717882 2.4505736405
H 1.4312686389 2.2885783982 1.5773581505
H 3.0436068989 1.5502265682 1.4124967505
