15
Molecule 6676 / 7211 from QM7b dataset
C -2.0404039388 0.2755682848 -0.6251314259
C -0.5179771988 0.3608147648 -0.6152949959
C 0.1093535712 1.4915949848 0.2077220841
C 1.4792573412 0.9109415048 0.5683586341
O 1.2846351712 -0.5268150952 0.6559871241
C 0.1453351812 -0.8883056552 -0.0254572959
O -0.2131830488 -2.0393852852 -0.1112782759
H -2.3675508088 -0.6388147252 -1.1369611459
H -2.4790701088 1.1417562448 -1.1388220559
H -2.4355345688 0.2470494548 0.4007962241
H -0.1492102088 0.4172667948 -1.6570955359
H -0.4850358888 1.6607599348 1.1196787941
H 0.1876525712 2.4442707848 -0.3321543159
H 2.2335990312 1.1068304548 -0.2110762559
H 1.8701432712 1.2468007948 1.5367815041
