15
Molecule 925 / 7211 from QM7b dataset
O -0.5160155322 -2.0866977318 0.2947563786
C -0.8524112722 -1.2276189118 -0.7970609014
C -0.2833070622 0.1735384782 -0.5271072314
C -0.8289597022 0.7758841882 0.7917262886
O -0.4115177722 2.1230151182 0.9842284386
C 1.1783012978 0.2015454482 -0.5227944114
C 2.3891988678 0.2853158082 -0.4777613414
H -0.7360905522 -2.9974937518 0.0411414186
H -1.9504237222 -1.1368898018 -0.9063061414
H -0.4406484322 -1.6060692118 -1.7486829014
H -0.6329580722 0.8235611882 -1.3498729214
H -0.5318905922 0.1291490182 1.6337049686
H -1.9280563722 0.7997845082 0.7429932786
H 0.5644653478 2.1158801882 1.0049989386
H 3.4589360578 0.3295487082 -0.4518695914
