16
Molecule 3571 / 7211 from QM7b dataset
O -1.5115702548 -1.7615313164 1.2415387746
C -0.6192732448 -1.6347183364 0.4039161146
N -0.1235572948 -0.4445717464 -0.0267137254
C -0.5871065748 0.8414333336 0.5208591746
C 0.1933790352 1.8799838036 -0.2982319754
C 1.4766334152 1.1349505336 -0.7018504054
C 0.9693924252 -0.2814288464 -0.9971403854
H -0.1223651148 -2.5027754064 -0.0906388154
H -0.3495898548 0.8915672536 1.5962296046
H -1.6779650648 0.9304368036 0.4210768146
H -0.3773076248 2.1588500036 -1.1976614654
H 0.3885565952 2.7976998336 0.2714776946
H 1.9881015052 1.5855853936 -1.5625421254
H 2.1837617752 1.1100593036 0.1418709546
H 0.5899402152 -0.3520355064 -2.0324621954
H 1.7361803352 -1.0564578464 -0.8579797254
