18
Molecule 5885 / 7211 from QM7b dataset
C -0.5875173090 0.0726010045 -0.6013160994
C -0.9878016390 0.5658525145 0.7751471206
C -2.1015194590 -0.1174655455 1.5320422306
C -0.6717142590 -0.2498921055 2.0078713106
C 0.8215021910 0.4654685645 -0.9930395394
C 1.9991369410 -0.3987873155 -0.7098694994
N 1.4442169510 -0.3205181355 -2.0817724094
H -0.6712574590 -1.0258093255 -0.6494549294
H -1.2889858190 0.4693792545 -1.3563432294
H -0.9327316390 1.6514509645 0.9035586406
H -2.5637186990 -0.9903838155 1.0676125306
H -2.7856335890 0.4979034745 2.1172664506
H -0.3801687090 0.2731424845 2.9191736806
H -0.1784046490 -1.2124474055 1.8626281106
H 1.0151932210 1.5451896945 -0.9872989194
H 1.8512174110 -1.3636268755 -0.2179297794
H 2.9563921910 0.0836728245 -0.4966510694
H 2.0360602910 0.2884929745 -2.6551677594
