20
Molecule 6856 / 7211 from QM7b dataset
C -0.6840833701 -1.7710725092 -1.4697494683
C -1.2319977701 -1.1659967592 -0.1744235883
C -0.6715396301 0.2259020608 0.1891484117
N -1.3391572901 0.8434000008 1.3541630217
C 0.8262354599 0.1930632208 0.4360602917
C 1.8086009599 0.4940673808 -0.6748065883
C 1.6112714999 1.4810345608 0.4498750717
H -1.1701146701 -2.7319636792 -1.6919286383
H 0.3985904499 -1.9476889492 -1.4080492583
H -0.8638320001 -1.1031417092 -2.3267232283
H -1.0377455301 -1.8502983892 0.6715962517
H -2.3300163901 -1.0793286692 -0.2506919783
H -0.8539210401 0.9012453608 -0.6695687583
H -1.1095944701 0.3053373308 2.1962203817
H -2.3545410401 0.7655287108 1.2436682817
H 1.1423196499 -0.5703111192 1.1567957617
H 1.4008137899 0.7506080408 -1.6539465383
H 2.7387148799 -0.0747472492 -0.7100544483
H 2.4083423099 1.5936831308 1.1850665017
H 1.0541621999 2.3952894608 0.2418497417
