13
Molecule 3685 / 7211 from QM7b dataset
C -2.3361632940 0.0592048348 0.0772208198
C -0.8473986540 0.1096519548 0.0249277498
N -0.2003728840 1.2345420648 0.0777771698
N 1.1462615060 1.1973595848 -0.3317544202
C 1.7878253560 0.0933754248 -0.1746640402
C 1.0932081360 -1.1162727952 0.3693067598
O -0.2619784140 -1.1144022752 -0.1535203602
H -2.7251538440 -0.3452242252 -0.8693823402
H -2.7265119140 1.0711347448 0.2213485198
H -2.6807146840 -0.6023966452 0.8836074898
H 2.8250980460 0.0523830048 -0.5203559002
H 1.5488942760 -2.0553148952 0.0350364898
H 1.0481658160 -1.1044318452 1.4750016398
