15
Molecule 2898 / 7211 from QM7b dataset
C -2.1367645018 0.4441801258 -0.0046728340
C -0.6421383918 0.4257464358 -0.0005292840
C 0.2149465382 1.4851185658 0.0049280760
C 1.6057519082 1.0003070758 0.0073295660
C 1.6029771182 -0.3584360142 0.0033370660
C 0.1969687782 -0.8002320942 -0.0017753640
C -0.2421374418 -2.0758060942 -0.0066027240
H -2.5124430118 1.4759892058 -0.0012756240
H -2.5547589718 -0.0665260242 0.8777528560
H -2.5497407418 -0.0588548642 -0.8938559640
H -0.0735285318 2.5363202758 0.0072154560
H 2.4836443182 1.6450267458 0.0116278660
H 2.4602741182 -1.0278491342 0.0037712960
H -1.3072596618 -2.3148107042 -0.0101936440
H 0.4561884382 -2.9145635042 -0.0071292540
