19
Molecule 4435 / 7211 from QM7b dataset
C -2.3189391528 -1.0368909301 0.5940966055
C -0.8198482128 -1.1359717201 0.2877685155
C -0.5582979628 -1.9273890101 -0.9980953145
C -0.2255945328 0.2682910499 0.2156547855
O 1.2005202772 0.1702602199 0.0654986255
C 1.8782081072 1.3458593799 -0.0497367745
C 1.3893023972 2.5964175899 -0.0374280645
H -2.5089548028 -0.4979298301 1.5343078555
H -2.7635672828 -2.0380246401 0.6848516455
H -2.8534019528 -0.5096734701 -0.2125211145
H -0.3245994328 -1.6555677401 1.1272215555
H -1.0488795928 -1.4442957001 -1.8588913245
H -0.9559523128 -2.9494008601 -0.9160936845
H 0.5164954972 -1.9930851901 -1.2128664145
H -0.4526784628 0.8386728799 1.1347775055
H -0.6449894028 0.8227832299 -0.6458764845
H 2.9463363172 1.1448510099 -0.1616671145
H 0.3326447272 2.8311850299 0.0741660755
H 2.0844006272 3.4265053699 -0.1449560245
