20
Molecule 3601 / 7211 from QM7b dataset
N -2.7538515660 -0.2343318875 1.4382571590
C -1.3362810360 -0.3238012975 1.0525042390
C -1.2099037860 -0.5802260275 -0.4497158610
C 0.2342574740 -0.6852812275 -0.9618138210
C 1.0382990340 0.5955292925 -0.8426177310
C 1.8893345140 0.8760576725 0.3760096690
C 2.5446548640 0.5573646825 -0.9488074410
H -2.8326207060 -0.0280098875 2.4366090490
H -3.2067918360 -1.1424177575 1.3004785490
H -0.7691416160 -1.1079989375 1.5987989390
H -0.8618932160 0.6379672225 1.3022411190
H -1.7435479560 0.2219684025 -0.9865919710
H -1.7403322060 -1.5180512775 -0.6943025610
H 0.2078500740 -0.9913367375 -2.0217832010
H 0.7636962440 -1.4932322475 -0.4249810710
H 0.5583534140 1.4707034725 -1.2925475910
H 1.9250712340 0.1105913725 1.1534207190
H 1.9485021140 1.8998406225 0.7476956090
H 3.0494156940 1.3636000925 -1.4819954010
H 3.0162333440 -0.4211596975 -1.0581966210
