17
Molecule 5944 / 7211 from QM7b dataset
O -0.7400683511 -2.6425024187 -1.0936885912
C -1.0354798911 -1.5213575787 -0.2438244912
C 0.1756756689 -0.6326587887 -0.1846390812
C 0.4318651089 0.3739400013 -1.2684893012
C -0.0155630411 0.8521893413 0.1055275188
C 0.9284062389 1.5539514613 0.9941003288
C 0.6021391989 2.5358160213 1.8468459688
H -1.4858440711 -3.2635529687 -1.0358435512
H -1.2971327911 -1.8635340087 0.7753412388
H -1.8956259611 -0.9455210287 -0.6380501512
H 1.0554467089 -1.0959470087 0.2695543488
H -0.2911696411 0.4420578513 -2.0825453712
H 1.4654031089 0.5684354313 -1.5571315312
H -1.0535676911 1.1906100013 0.1749936788
H 1.9742753189 1.2290737513 0.9310911088
H -0.4264882011 2.8931511113 1.9387722088
H 1.3529903289 3.0139634713 2.4762010988
