14
Molecule 344 / 7211 from QM7b dataset
C -1.0454277157 -2.0306375950 -0.0020345899
N -1.6607257157 -0.7107008350 0.0007320401
C -0.9997955957 0.4923625550 0.0003549001
O -1.5883292057 1.5779954750 0.0000386201
C 0.4507606943 0.4023149950 0.0006216901
C 1.6681429743 0.4329955950 0.0006259201
C 3.1190803843 0.4806168750 0.0006087501
H -1.8427698857 -2.7827721150 0.0063294401
H -0.4151970457 -2.1861033150 0.8860797201
H -0.4294740657 -2.1904357550 -0.8995217999
H -2.6742108657 -0.6287996150 -0.0017007199
H 3.4805818443 1.5191737850 -0.0115010999
H 3.5286330943 -0.0336943550 -0.8813967499
H 3.5275861343 -0.0123411350 0.8952179401
