18
Molecule 5643 / 7211 from QM7b dataset
N -1.8926041175 -0.0393220890 0.5337558542
C -0.4988352075 -0.3179288690 0.1358383242
C -0.5046660175 -0.9490919290 -1.2328948258
C 0.0363432925 -2.1364726390 -1.5253438058
C 0.2712829325 0.9938266110 0.1278356742
C 0.9005696525 1.4957707310 1.4102659342
C 1.7689305625 0.9940404910 0.2778880242
H -1.8976763575 0.4358321210 1.4400768742
H -2.4031029975 -0.9179316690 0.6494700042
H 0.0293697525 -1.0090081890 0.8289669542
H -1.0040496175 -0.3615061190 -2.0113247558
H 0.5254717025 -2.7434870990 -0.7584781358
H 0.0145608825 -2.5427765190 -2.5377211458
H -0.1611803375 1.7525425810 -0.5301134758
H 0.8179501225 0.8629623210 2.2965826342
H 0.8791781725 2.5667151610 1.6142173842
H 2.3428305925 1.7214904410 -0.2963484258
H 2.2631256225 0.0295552210 0.4068451542
