13
Molecule 153 / 7211 from QM7b dataset
C -1.7010822186 -0.7936699232 0.1005538502
C -0.5020232186 -1.8319865432 -0.0113195398
C 0.4342448714 -0.6176531332 -0.0465760298
C -0.6095377586 0.2641421068 0.0502897402
N -0.1004895686 1.5222347868 0.0460824602
N 1.2662309514 1.4845851268 -0.0519394398
C 1.6011162214 0.1786459368 -0.1093521098
H -2.2713517686 -0.8515259932 1.0389628302
H -2.3981292386 -0.8054564532 -0.7498296298
H -0.5271935086 -2.4442462832 -0.9240188098
H -0.4002876786 -2.4900250332 0.8634242202
H -0.5528265186 2.4284587868 0.1015878402
H 2.6532916514 -0.0818150832 -0.1907030598
