15
Molecule 3336 / 7211 from QM7b dataset
N -2.5339438020 0.0038806346 -1.0374703477
C -1.0882339120 -0.2619877454 -1.0324025077
C -0.3991882020 0.5518908746 0.0664736623
C 1.0844629180 0.2949215246 0.1315398623
C 1.8270295780 0.2778588746 1.4027482023
O 1.5033905780 -0.9553439854 0.7301741523
H -2.9992035520 -0.6126936854 -1.7070757477
H -2.7118812420 0.9590405946 -1.3602562377
H -0.5864618820 -0.0579800754 -2.0016087777
H -0.9416316020 -1.3320956954 -0.8183414577
H -0.8641010020 0.3149975646 1.0356552523
H -0.5580239920 1.6303721446 -0.1170010077
H 1.6526222380 0.5480260746 -0.7745257277
H 1.2833914480 0.4531827846 2.3377460023
H 2.8913492880 0.5366365646 1.4161516023
