16
Molecule 2128 / 7211 from QM7b dataset
C -1.7978019711 -1.6949014994 0.2853776800
C -0.2545996611 -1.6956012894 0.2368561000
N 0.3351721489 -2.4272453094 -0.9048016600
C 0.2509549289 -0.3209992594 0.2553811600
C 0.6139087889 0.8389631906 0.2490411500
C 1.1119899089 2.2056524106 0.2606431100
O 0.0804737089 3.1092910506 -0.1792511600
H -2.1672065511 -1.1793812294 1.1834794500
H -2.1716083411 -2.7292650194 0.2990156200
H -2.2075370411 -1.1831956794 -0.5971519000
H 0.1144638889 -2.1977634894 1.1504865700
H 0.0627191089 -1.9586483594 -1.7743270800
H -0.0728814611 -3.3658277994 -0.9406442800
H 1.9983148189 2.2688347906 -0.3992942900
H 1.4449466589 2.4585129806 1.2856888300
H 0.4620822389 4.0044412506 -0.1634272200
