19
Molecule 4212 / 7211 from QM7b dataset
C -2.7216894603 -1.9307679910 -0.0005050217
C -1.1970708103 -1.8177233210 0.0453532283
C -0.7029959603 -0.3682754810 0.0257054883
C 0.8317593197 -0.2558679210 0.0728894683
C 1.3263340597 1.1807618990 0.0754547783
N 1.3471462197 1.7852053590 -1.1739621717
N 1.7356372897 1.8501448490 1.0986502183
H -3.0474343403 -2.9805608810 0.0159250583
H -3.1282321003 -1.4699069010 -0.9140176117
H -3.1846105503 -1.4239173310 0.8600115183
H -0.7586171203 -2.3623200310 -0.8088734117
H -0.8155073103 -2.3175088210 0.9524690683
H -1.1300528003 0.1812537690 0.8817162283
H -1.0898481203 0.1314434190 -0.8801129017
H 1.2677615897 -0.7934309010 -0.7865028317
H 1.2057844197 -0.7516110210 0.9816579683
H 0.6973886197 1.4419797190 -1.8739212317
H 1.4513891297 2.7971778690 -1.1459794917
H 1.7344711297 1.2511865490 1.9314236583
