15
Molecule 4807 / 7211 from QM7b dataset
C 0.8773811462 -1.4277418378 0.4053526856
O 1.4042489262 -0.1179889478 0.7662823056
C 0.7567023862 0.5019371822 -0.3896470744
C -0.2674468038 1.5754200322 0.0016067856
C -1.5564216738 0.7955458322 0.1170822756
C -1.4262410738 -0.4825396878 -0.2730663844
C -0.0201930438 -0.8098140878 -0.6926053744
H 1.6735710462 -2.0894699878 0.0212598656
H 0.3638650562 -1.9112021678 1.2519101756
H 1.5051631062 0.8384859322 -1.1252036644
H 0.0330112662 2.0501833122 0.9501858856
H -0.3392569538 2.3792316822 -0.7519074744
H -2.4852551438 1.2416424022 0.4771676556
H -2.2304619838 -1.2205048778 -0.2741858244
H 0.0626865762 -1.2612993078 -1.6918225444
