18
Molecule 3926 / 7211 from QM7b dataset
C -0.2363040137 1.5841426066 -1.5784929559
C -1.4563292037 0.7778845866 -1.1980563659
C -0.1105236937 0.1065303966 -1.2762330659
C 0.6258625463 -0.3601457634 -0.0439293459
C 0.5329047263 0.4071557166 1.3013973741
C 0.4932025463 -0.9891887334 1.9644811241
N 0.0685814363 -1.5597629834 0.6575449441
H -0.1265192837 1.9136299566 -2.6120626259
H 0.1543330363 2.2840882066 -0.8375012559
H -2.1862056637 0.5450548666 -1.9733714459
H -1.8895152037 0.9404562466 -0.2104669459
H 0.0424777463 -0.5388463534 -2.1462801359
H 1.6962197463 -0.4930621834 -0.3064854859
H -0.4207597037 0.9389375466 1.4175063841
H 1.3632400463 1.0740320366 1.5602525041
H 1.5003993363 -1.3070197934 2.2935612441
H -0.2197818837 -1.1498114934 2.7875628041
H 0.5131643263 -2.4473910134 0.4094697641
