18
Molecule 5959 / 7211 from QM7b dataset
C -2.0819936950 1.7875585008 -0.9384712218
C -1.7752772350 0.4862130308 -0.8787919618
C -1.0668531550 -0.1863242292 0.2602217082
C 0.2697239950 -0.8136877892 -0.1592430118
C 1.4214678050 0.2062585108 -0.3702766118
N 1.8838594650 -0.0714204592 1.0186809082
C 1.1192646950 -1.3480678292 1.0259889782
H -2.5935519450 2.2158441408 -1.8019706918
H -1.8361636750 2.4676281008 -0.1182941318
H -2.0404539250 -0.1588607792 -1.7261351518
H -1.7092870150 -0.9888902892 0.6666812882
H -0.8899810150 0.5325133208 1.0764327782
H 0.1151860050 -1.5241281292 -0.9842826318
H 1.1342290950 1.2534928508 -0.5576150218
H 2.1221967850 -0.1216355892 -1.1599310118
H 2.8949915550 -0.1720322492 1.1264291882
H 1.7089480650 -2.2390121992 0.7411301982
H 0.5888753550 -1.5566771292 1.9702215582
