13
Molecule 2341 / 7211 from QM7b dataset
C -1.3841083845 -1.8307125442 -0.0067193898
O -0.1510466045 -1.1271727142 -0.0457278698
C -0.3334185845 0.2646087558 0.2212638402
C 1.0013865355 0.9396064858 0.2589745802
C 1.3068579655 2.0408970058 -0.4338367198
H -1.1607930545 -2.8849661342 -0.2126055798
H -2.0916457945 -1.4555542842 -0.7708820798
H -1.8672065245 -1.7494142642 0.9860939702
H -0.8426937045 0.3848067958 1.2023469802
H -0.9846726945 0.7280380158 -0.5474452398
H 1.7410891755 0.4829085058 0.9244621802
H 0.5867964555 2.5064072858 -1.1117977498
H 2.2831937855 2.5187575758 -0.3424433898
