19
Molecule 6711 / 7211 from QM7b dataset
C -3.5347245096 -1.2332186435 0.0136279145
C -2.0064249396 -1.2335391735 0.0136088845
C -1.4186072596 0.1921694265 -0.0056956155
C 0.0403975604 0.2210490365 -0.0061649255
C 1.2574179104 0.2101374665 -0.0060984655
C 2.7175468304 0.2369863665 -0.0060789155
C 3.2993258604 1.6613977965 -0.0070777855
H -3.9318254896 -2.2580480035 0.0274052945
H -3.9354013896 -0.7328005835 -0.8814061455
H -3.9353678296 -0.7089488835 0.8949198445
H -1.6258862696 -1.7846677735 -0.8606388955
H -1.6258397896 -1.7608481435 0.9024062745
H -1.7966895196 0.7519629865 0.8681959445
H -1.7968596896 0.7281637965 -0.8943071755
H 3.0906694804 -0.3139737535 -0.8861802555
H 3.0905552204 -0.3126884035 0.8748749245
H 2.9695925304 2.2164873965 -0.8957242255
H 4.3979515804 1.6276918165 -0.0070052455
H 2.9695124504 2.2177758965 0.8807331145
