16
Molecule 3530 / 7211 from QM7b dataset
C -2.5067956444 -1.4235423131 -0.2883540038
O -1.0931888644 -1.2668159631 -0.3401452938
C -0.6782540644 -0.0384920231 0.2357190862
C 0.8533509356 0.0465655369 0.1010796462
C 1.3177350556 0.0810762469 -1.3656549238
C 1.3373817756 1.2132142669 0.8419813162
N 1.7140522256 2.1497498569 1.4268451962
H -2.7378093744 -2.3929180631 -0.7461860338
H -3.0221150544 -0.6235092131 -0.8512308238
H -2.8759216844 -1.4168708931 0.7538238462
H -0.9672967544 0.0115660469 1.3031695562
H -1.1480179444 0.8203381969 -0.2848817638
H 1.2740905156 -0.8470889631 0.5939680362
H 0.9304920456 0.9758589569 -1.8723038638
H 0.9404267456 -0.8088549131 -1.8827729738
H 2.4127884956 0.0948272669 -1.4289667338
