11
Molecule 114 / 7211 from QM7b dataset
C -3.2117958813 -0.4567657529 -0.0000032238
C -1.7624466013 -0.3828566429 0.0000416862
C -0.5458255213 -0.3002842629 0.0000624462
C 0.8668423687 -0.3061108029 0.0000925662
N 1.5322455787 0.8061490971 -0.0001182238
O 2.9155016887 0.5376029071 -0.0000333038
H -3.6574538713 0.5484696971 0.0119647162
H -3.5801707413 -1.0012559729 0.8824991162
H -3.5811817313 -0.9804412729 -0.8946164938
H 1.3948047587 -1.2702722929 0.0003006262
H 3.2936228387 1.4357376771 -0.0002148138
