18
Molecule 6933 / 7211 from QM7b dataset
N -1.1555324303 -2.1648209033 -1.2951810348
C -0.7072313603 -1.6431873533 0.0039549552
C 0.4680973197 -0.6842106533 -0.1747946348
C 0.0972148597 0.6626173567 -0.8598169448
C 0.0231638397 1.3118924867 0.5478486852
O 0.4905324597 2.6371061667 0.7468110852
C 0.8308998497 0.1109540367 1.1137164052
H -1.9788965503 -2.7575921733 -1.1714625348
H -0.4289017503 -2.7644883333 -1.6960403148
H -0.4089130603 -2.4274287733 0.7311116752
H -1.5576969803 -1.1052725733 0.4565099552
H 1.3072394297 -1.2285016533 -0.6372369948
H -0.7993238403 0.6724128067 -1.4940396948
H 0.9440936297 1.0729400267 -1.4323682148
H -1.0063645503 1.3165523267 0.9345578452
H 1.3900040297 2.6885711567 0.3753771152
H 1.9053857297 0.3477953867 1.1550896152
H 0.5249741997 -0.3064864433 2.0848293152
