14
Molecule 2793 / 7211 from QM7b dataset
C -2.9959800762 -1.3261590701 -0.0361532722
C -1.5193173162 -1.1257965501 -0.0077383222
C -0.8946407662 0.0628506999 -0.0739097022
C 0.5731412038 0.1574337899 -0.0300058522
O 1.3750116838 -0.7925912901 0.0080036478
N 1.0819496838 1.4394518899 -0.0887479322
O 2.4623966538 1.5161280499 0.1387934478
H -3.2827324262 -1.9681936801 -0.8844573122
H -3.5440758862 -0.3779800601 -0.1159929122
H -3.3344805962 -1.8513819401 0.8713249678
H -0.8859075462 -2.0158811601 0.0705103178
H -1.4645941462 0.9935036599 -0.1624645022
H 0.5931177438 2.2087628199 0.3686940578
H 2.6665401038 0.5367398399 0.1860870378
