16
Molecule 212 / 7211 from QM7b dataset
C -0.0890231075 -2.4957362691 0.4103210265
N 0.4997830425 -1.2169908891 -0.0126445435
C -0.4481482975 -0.1285653891 -0.3431759935
C -1.5655042575 0.0176754309 0.6957613765
C 0.3419771625 1.1985597909 -0.3823276735
O 1.5079846525 1.1433038709 0.3020678365
O -0.0602117075 2.2001469709 -0.9358139235
H 0.7170977725 -3.2349801791 0.5021759065
H -0.8447387275 -2.8908123491 -0.2940848135
H -0.5559434475 -2.3906685391 1.3974226365
H 1.0690263425 -1.3944089891 -0.8453648935
H -0.9084209775 -0.2559531091 -1.3402494135
H -1.1513503575 0.1182022309 1.7097356265
H -2.2497895775 -0.8403018291 0.6761600965
H -2.1442643275 0.9210701809 0.4672081665
H 1.5519094425 0.1875806909 0.6020047765
