14
Molecule 4103 / 7211 from QM7b dataset
C -0.9982379691 -1.5564318032 0.3660289667
C 0.3344718009 -0.9975756132 -0.0724800233
N 1.3886996709 -1.6754708532 -0.3819635233
N 0.4373236209 0.3845906868 -0.1517816233
C -0.5284107291 1.3400595468 0.1216454167
C -0.3509686891 2.6707545368 0.0237197067
H -1.8030837491 -1.2612672632 -0.3230744033
H -1.2716683891 -1.2026080932 1.3710268067
H -0.9484952791 -2.6506927732 0.3880467567
H 1.2026471809 -2.6788595832 -0.2892073533
H 1.3603152309 0.6994889668 -0.4523210733
H -1.4903766191 0.9346808468 0.4370022767
H 0.5976823609 3.1097824268 -0.2885474733
H -1.1703102591 3.3447966368 0.2598060867
