17
Molecule 3072 / 7211 from QM7b dataset
N -1.5839173123 -1.0434492266 0.6770933518
C -0.7624522923 -1.0496348066 -0.5540234882
C 0.2551043577 0.0745763034 -0.4761416682
C 1.2629821177 -0.0364726366 0.6555302218
O 0.6665599477 0.0699099534 1.9462359118
C 0.6448577477 0.8062953934 -1.7116684582
N -0.3330538123 1.4060335734 -0.7766445282
H -2.1927975423 -1.8636105766 0.7071192918
H -2.1933478823 -0.2201175166 0.6536838418
H -1.3572777323 -0.9369088766 -1.4786836382
H -0.2360084623 -2.0165346166 -0.6078056482
H 2.0077095277 0.7736330934 0.5728526818
H 1.8122399077 -0.9957738366 0.5472396118
H -0.1771490423 -0.4432266466 1.8775037018
H 0.2307771477 0.5053079434 -2.6777397182
H 1.6555595977 1.2207620234 -1.7551153882
H 0.1336611877 2.1105134334 -0.1942634382
