20
Molecule 3338 / 7211 from QM7b dataset
C -2.2263407362 0.8256529935 -0.6180758575
C -0.7078190062 0.8420116635 -0.5481314675
C 0.0049206438 1.8970285935 0.3434447725
C 1.0564089538 0.8178768135 0.7132215225
C 0.0385653038 -0.2660137765 0.2530804125
C 0.5467492038 -1.4951084065 -0.4824712775
N 1.2633897238 -2.3947063465 0.4365576025
H -2.5968513162 -0.0452008465 -1.1805517475
H -2.6122932362 1.7288769535 -1.1156445275
H -2.6651486862 0.7853499235 0.3911766625
H -0.2840770762 0.8874683435 -1.5675195075
H -0.6187899262 2.1613476435 1.2116694125
H 0.3568140838 2.8229037335 -0.1327642775
H 1.9247881238 0.8572787335 0.0354269725
H 1.4156124338 0.7844724435 1.7509272825
H -0.5760064362 -0.5883233065 1.1111193425
H 1.1548996838 -1.1579300565 -1.3499067075
H -0.3119807462 -2.0526810865 -0.8942405075
H 2.1047598138 -1.9267698865 0.7850697025
H 1.5896390438 -3.2225354565 -0.0670739475
