15
Molecule 655 / 7211 from QM7b dataset
C -2.5255402655 0.1473473119 -0.0127169682
C -1.0549080955 0.3583581619 -0.0051821082
C -0.2537647555 1.4675541319 -0.0008936382
C 1.1024773145 1.0021957719 0.0059242718
C 1.0532074745 -0.3654140681 0.0053660618
C 2.0817633045 -1.4440167681 0.0098029718
O -0.2663623355 -0.7739166481 -0.0015100182
H -3.0368862055 1.1176402019 -0.0062254982
H -2.8575278655 -0.4216986481 0.8693202918
H -2.8512784155 -0.4064556681 -0.9067855282
H -0.5951188055 2.4986853919 -0.0022302782
H 2.0042739745 1.6076157419 0.0107739918
H 1.5917379945 -2.4254482581 0.0204033518
H 2.7318771645 -1.3797115581 0.8947024118
H 2.7244109845 -1.3954412681 -0.8816821382
