18
Molecule 5659 / 7211 from QM7b dataset
C -1.9010255860 0.6755100435 -0.7045592003
C -0.3890382260 0.5819827735 -0.6906963703
N 0.3599568740 1.6416485635 0.0690694297
C 1.3164446840 0.5971863035 0.5647383597
C 0.3648698340 -0.5416434965 0.0990800097
C -0.4155139860 -1.1809217265 1.2352609197
O 0.9166887640 -1.6166351765 -0.6588842303
H -2.3387909760 -0.1613001865 -1.2681785503
H -2.2199925460 1.6098236335 -1.1899580303
H -2.3218407060 0.6594803835 0.3122473597
H -0.0189024260 0.5874676635 -1.7352994203
H -0.2246578060 1.9572865835 0.8498234497
H 2.2559085140 0.6271698635 -0.0138356303
H 1.5626605040 0.6404904335 1.6365093997
H -0.8548622460 -0.4190091565 1.8938135697
H 0.2598287140 -1.8076152165 1.8344804997
H -1.2226258760 -1.8165036965 0.8450725297
H 1.4156463040 -1.2284322265 -1.4000296503
