15
Molecule 698 / 7211 from QM7b dataset
C -1.8156692321 0.2215541398 0.9430688076
C -0.3113395521 0.1993363498 0.9982944776
C 0.5330709579 -0.5492428102 -0.0086439624
C -0.0567302021 -1.2734358302 -1.1061383424
N -0.5384195221 -1.8866087902 -1.9753267724
N 0.4300866679 0.9231029998 -0.0284661524
C 1.6375187179 1.6283157898 0.3990672276
H -2.1985334121 1.1460741098 1.3983843376
H -2.2361206621 -0.6322230602 1.4935454076
H -2.1684343821 0.1758061698 -0.0949103024
H 0.1313401479 0.2029184898 2.0044253776
H 1.4622490079 -0.9908751402 0.3698970176
H 1.3536728679 2.6358940098 0.7335858976
H 2.3187907979 1.7274843198 -0.4570396724
H 2.1742614779 1.1202957998 1.2247731576
