12
Molecule 2458 / 7211 from QM7b dataset
C -1.7118630427 -0.4104293013 0.6274039397
C -0.1685196527 -0.3459857413 0.5311976997
C 0.2933436573 -1.1684974213 -0.6790946103
O 0.9948707873 -0.7828149613 -1.5866636003
C 0.3424471973 1.0159213187 0.5414976097
C 0.7534293273 2.1567533587 0.5503173597
H -2.0500614527 0.0487787987 1.5639020897
H -2.0564776227 -1.4541366813 0.6067660997
H -2.1700577827 0.1306560887 -0.2106637803
H 0.2419763273 -0.8917090113 1.4047537397
H -0.1009833127 -2.2191547313 -0.6500034503
H 1.1236126273 3.1615119487 0.5506221097
