20
Molecule 7008 / 7211 from QM7b dataset
C -0.1182285700 -2.8132291675 -0.6092449416
C -0.6161067600 -1.5422038775 0.0889740084
C 0.4189170800 -0.4344137775 0.0815102984
C 0.5641724700 0.5016586425 -1.1122159216
C 0.1152403200 1.0557574325 0.2152376084
C -1.3088943900 1.5449943625 0.3774899784
N 1.0541713400 1.9347648425 0.9042020184
H -0.8830550800 -3.6034475175 -0.5999674216
H 0.7802096100 -3.2116547675 -0.1133935916
H 0.1456026000 -2.6083050375 -1.6577101116
H -0.8954906900 -1.7804657875 1.1304391984
H -1.5393593300 -1.1966412475 -0.4031202016
H 1.3696526300 -0.7244941075 0.5450279084
H -0.1837856500 0.4236929425 -1.9050403116
H 1.5654776700 0.7550363325 -1.4675897616
H -2.0250286000 0.9266150425 -0.1781073716
H -1.3868519600 2.5803379425 0.0156148484
H -1.6102326300 1.5346432725 1.4379637784
H 2.0159040300 1.6537523225 0.6981139784
H 0.9371571200 1.8321950225 1.9178487484
