15
Molecule 1537 / 7211 from QM7b dataset
C -2.9774256873 0.6093020393 1.1385110860
N -1.5869850673 0.5396245893 0.7324752260
C -1.2289365273 -0.4840683907 0.0507969460
N 0.0751426927 -0.7035901607 -0.3276608240
C 1.0629199227 0.3596076493 -0.1369358840
C 2.3690125427 -0.0334362307 -0.6466126740
C 3.4519607727 -0.3545751907 -1.0888629640
H -3.0475413473 0.6281584793 2.2381589760
H -3.5953877073 -0.2342741907 0.7694444760
H -3.4253616773 1.5484965393 0.7766165460
H -1.9167311873 -1.2935065607 -0.2618034540
H 0.2346529127 -1.3342912907 -1.1070675340
H 1.1217065627 0.5871791093 0.9398672060
H 0.7317156027 1.2966953593 -0.6229368940
H 4.4146573227 -0.6316777007 -1.4673591940
