13
Molecule 5041 / 7211 from QM7b dataset
N -1.8251502057 -1.6810572136 -0.6351404194
N -0.5936998557 -1.5454334436 0.0175995006
C -0.0670650357 -0.3754772636 0.0414680006
O 1.1732859743 -0.2313014136 0.6566643406
C 1.5751887443 1.1455406964 0.5538068606
C 0.4665119043 1.8309659764 -0.1809603794
C -0.4876300257 0.9278704164 -0.4680576894
H -2.2355189257 -2.5575340536 -0.3130957394
H -2.4843834257 -0.9232681936 -0.4199164694
H 2.5395435543 1.2013893064 0.0160496006
H 1.7332187343 1.5500645064 1.5705904906
H 0.4779489143 2.8881529164 -0.4407818894
H -1.4071797357 1.1036424764 -1.0209150394
