18
Molecule 4095 / 7211 from QM7b dataset
C -1.6871258882 -0.3089291935 0.4102094026
C -0.2041552082 -0.1491810635 0.1225506626
C 0.1131582318 -0.1560099335 -1.3777397574
N -0.5008600382 0.9920210165 -2.0617518774
C 0.5440121818 0.9390318665 0.9301344226
C 1.3757485818 -0.2240615535 1.4943355226
O 0.5799579418 -1.2144785235 0.7780582326
H -1.8630522982 -0.3628559735 1.4931542726
H -2.0715662282 -1.2336417735 -0.0469753174
H -2.2533984482 0.5469892465 0.0127734826
H -0.1809403882 -1.1473157035 -1.7783865574
H 1.2053935618 -0.0784798635 -1.4903202074
H -1.4948268182 0.8180903565 -2.2264202574
H -0.0788170582 1.1134191865 -2.9836745274
H -0.0778623182 1.4599231265 1.6690815226
H 1.0755606718 1.6781084165 0.3184424726
H 2.4326975418 -0.2501337435 1.1787256926
H 1.3233411218 -0.3775229335 2.5844551826
