15
Molecule 3826 / 7211 from QM7b dataset
C -2.2092397928 0.6426556184 -0.1136512698
C -0.7371864728 0.5051909884 -0.4692893398
C 0.2161407672 1.5041478484 0.2425699002
N 0.5432756172 0.4514037384 1.2462422102
C 0.0100816672 -0.6098195916 0.3476185702
C 1.0223681072 -1.3277683716 -0.4279900798
N 1.8617887772 -1.8765598516 -1.0274792798
H -2.7907197328 -0.2121206616 -0.4888742898
H -2.6285397928 1.5551183784 -0.5622915998
H -2.3483598628 0.7044971584 0.9756710802
H -0.5962199528 0.4276493084 -1.5545555398
H -0.2480631628 2.4016464784 0.6796151302
H 1.0627818072 1.8049938584 -0.3970935798
H 1.5334484672 0.3539663084 1.4808114202
H -0.6327641828 -1.3460969916 0.8598301802
