13
Molecule 1715 / 7211 from QM7b dataset
C -2.9883194390 0.0309097210 0.1164032584
C -1.7782017190 -0.0627165390 0.0926339484
C -0.3519475190 -0.1117219790 0.0464308584
N 0.3305458210 -1.2009678490 -0.1150353916
C 1.7455946710 -0.7855787290 -0.0561663916
C 1.7483169310 0.7551782710 -0.2140538516
N 0.3790000110 1.0733599810 0.2308477384
H -4.0575453290 0.0860491710 0.1426657884
H 2.1525005810 -1.0866958990 0.9253078584
H 2.3318243010 -1.3009596990 -0.8291107516
H 1.9071741310 1.0540185110 -1.2657880416
H 2.4980125910 1.2533906110 0.4148556484
H -0.0514446490 1.9310279110 -0.1101038616
