17
Molecule 4631 / 7211 from QM7b dataset
N -0.5371117733 -1.8746528150 -1.4268157450
C -0.3794558333 -1.4278089450 -0.0335138950
C 0.3899906067 -0.1189864950 0.0314087950
C -0.2588537433 1.1723988650 -0.5410735250
C 0.3341492967 1.9557085150 0.6608479250
C 0.5145770067 0.6035142250 1.4028557550
H -1.1005285733 -2.7268256150 -1.4614552250
H 0.3778714767 -2.1224923750 -1.8136598350
H 0.1183418567 -2.1684606150 0.6286052750
H -1.3890452133 -1.2623925350 0.3807150750
H 1.3949390767 -0.2584247650 -0.4065268750
H -1.3566829933 1.1089478150 -0.4866858950
H 0.0215437267 1.4851868650 -1.5552725150
H 1.3043282567 2.4090094350 0.4098530850
H -0.2955088533 2.7195640450 1.1372830850
H 1.4334849967 0.4509355450 1.9861160050
H -0.3514053433 0.3785649150 2.0455877050
