17
Molecule 470 / 7211 from QM7b dataset
N -2.5116684378 -0.9467384850 -0.3285137577
N -1.1423550578 -0.8386202250 -0.4048985277
C -0.4341940578 -1.1191877350 0.6307815823
C 1.0575690122 -0.9063456850 0.6376844623
C 1.5228807922 0.5579424850 0.8164145123
C 1.4242971922 1.4203133950 -0.4477035177
O 0.0999430722 1.7584112450 -0.8458744477
H -2.8988652478 -1.1430066850 -1.2494949477
H -2.8501899478 -1.6125954750 0.3769337523
H -0.9125724078 -1.5028711450 1.5507851823
H 1.4801418222 -1.2970500250 -0.3035128077
H 1.4781559222 -1.5179802550 1.4500306023
H 2.5832644022 0.5403837450 1.1207385623
H 0.9620795422 1.0419068250 1.6327078223
H 1.9701392322 0.9096647450 -1.2691760877
H 1.9368071722 2.3788403250 -0.2698220977
H -0.3936582278 0.9165941950 -0.9613706377
