17
Molecule 861 / 7211 from QM7b dataset
C -2.5222000064 -1.1001986308 -0.1329761843
C -1.0014239864 -1.1059850708 -0.2387165443
N -0.4254502964 0.0880284992 0.3907934657
C 1.0150071636 0.1245861092 0.3448807657
C 1.6557115036 0.7866102692 -0.8523731943
C 1.6830639036 1.4667918992 0.4987988757
H -2.9515364164 -1.9847004408 -0.6239270243
H -2.9408712064 -0.1993870208 -0.6033053543
H -2.8475450164 -1.1153631908 0.9194153057
H -0.6976940864 -1.0971638708 -1.2985397243
H -0.5989944164 -2.0487432308 0.1935560957
H -0.7356706664 0.1378150492 1.3661780557
H 1.5584202336 -0.7401597508 0.7586040057
H 0.9760740536 1.1978254292 -1.5993367543
H 2.5831562636 0.3662041892 -1.2421146443
H 2.6280838836 1.5123647092 1.0404775757
H 1.0237779836 2.3242811792 0.6357558957
