22
Molecule 6895 / 7211 from QM7b dataset
C -2.5857959260 -2.2215185724 0.0152622518
N -1.1624205860 -1.9192882524 0.1380778518
C -0.8850408560 -0.4819845024 0.0956425518
C 0.6181164540 -0.2091079024 0.1447254918
C 1.0105263040 1.2747225376 0.2578294118
C 2.5188241640 1.4098595476 0.5018927018
C 0.5907796340 2.0951743276 -0.9694184982
H -2.7304752060 -3.3097837424 -0.0332596782
H -3.0753394660 -1.7639785624 -0.8715692682
H -3.1151368160 -1.8564652424 0.9094216418
H -0.6562941160 -2.3738325124 -0.6266194782
H -1.3681514460 -0.0239703524 0.9780295618
H -1.3388451560 0.0041727776 -0.7962615682
H 1.0971141840 -0.6353048824 -0.7577771482
H 1.0316195540 -0.7605033324 1.0053495318
H 0.4878668840 1.6899713776 1.1402165418
H 3.0904472840 1.0073071076 -0.3502206982
H 2.8308203940 0.8613333376 1.4030274718
H 2.8089372140 2.4635683676 0.6286768118
H 1.0627424440 1.6966853176 -1.8827538382
H 0.9044414540 3.1446936076 -0.8648671282
H -0.4972617460 2.0882518876 -1.1235411882
