19
Molecule 7059 / 7211 from QM7b dataset
C -1.5564979378 -1.6415786416 1.4048756367
C -1.1215780778 -1.4831148016 -0.0567393833
N -0.5711696478 -0.1749990216 -0.3908218133
C -1.4735991978 0.9646805684 -0.4365803933
C 0.7801372522 0.0462797184 -0.2671122533
N 1.3170530422 1.2125134384 -0.2581023333
C 2.7650829722 1.2643335184 -0.2302350733
H -1.9591543078 -2.6506635516 1.5756764667
H -2.3404825278 -0.9192456416 1.6729293867
H -0.7057675378 -1.4904579316 2.0849754267
H -1.9782971278 -1.6732553916 -0.7255476733
H -0.3570364478 -2.2367733916 -0.3024048133
H -2.3900098478 0.6798825784 -0.9732031433
H -0.9702683178 1.7838545684 -0.9636490933
H -1.7472073978 1.3321914184 0.5683605367
H 1.3668522522 -0.8928265516 -0.2070678633
H 3.1038129022 1.8754225984 0.6226936667
H 3.1453505722 1.7571863284 -1.1407038033
H 3.2497539622 0.2684818784 -0.1548412633
