17
Molecule 4236 / 7211 from QM7b dataset
C -1.5095999430 0.1994505415 0.7701241280
C -0.0519483330 0.3799937215 0.3208276380
C 0.2819020470 -0.5351307585 -0.8931443620
C 0.1363495670 -1.9574458885 -0.6125365720
C 0.0244884370 -3.1393651785 -0.3566496120
C 0.2305608770 1.8142694615 -0.0366860720
C 1.1361523170 2.5955366915 0.5617163380
H -1.7196905630 0.8090916215 1.6593589680
H -1.7143010730 -0.8534169085 1.0094425480
H -2.2060651730 0.5094479815 -0.0251632020
H 0.6152951670 0.0872993715 1.1491261280
H 1.3155684070 -0.3347421285 -1.2187837520
H -0.3707969030 -0.2614915585 -1.7411406220
H -0.0747971530 -4.1835214185 -0.1411837920
H -0.3760464430 2.2280434215 -0.8531607120
H 1.7569691670 2.2226130215 1.3808258080
H 1.2864347570 3.6328250515 0.2587697080
