14
Molecule 2564 / 7211 from QM7b dataset
C -2.7051348941 -0.5136263250 -0.0467832183
C -1.2229917441 -0.5396200850 -0.2409291183
C -0.3621659441 0.3418481050 0.2984440717
C 1.1022811259 0.3583037250 0.0964587417
N 1.6739553259 -0.8004205050 -0.4225171583
N 1.8608239259 1.3858600350 0.3111666017
H -3.0615347041 -1.4580794850 0.3953552017
H -3.2260598841 -0.4090770750 -1.0120632583
H -3.0174000141 0.3125037850 0.6062866317
H -0.8320205641 -1.3245511150 -0.8978593083
H -0.7491590541 1.1546199150 0.9219183717
H 1.2917463659 -1.6758892850 -0.0740717983
H 2.6919177059 -0.7658469450 -0.4041205883
H 1.2871241259 2.1868109750 0.6008657817
