15
Molecule 4856 / 7211 from QM7b dataset
O -0.6503893522 -2.0817115318 1.2830683362
C -0.5718878622 -1.7004156818 -0.1018181138
C -0.0164634222 -0.3203323818 -0.2090764638
C 1.1751113478 0.0901090182 -0.6739600238
C 1.2755668778 1.5883870582 -0.5203429638
C -0.1747899722 1.9466893482 -0.1215772638
O -0.8424568222 0.6933779482 0.2256433862
H -1.2702066222 -2.8278684018 1.3456621762
H -1.5737766222 -1.7165352918 -0.5674662938
H 0.0871120978 -2.3829025418 -0.6669946738
H 1.9683007578 -0.5626302818 -1.0274369438
H 2.0032278778 1.8619928382 0.2636891262
H 1.5827016078 2.1061664882 -1.4416534238
H -0.7309991122 2.3901572082 -0.9632476738
H -0.2488124022 2.6116644882 0.7484029062
