13
Molecule 169 / 7211 from QM7b dataset
C -1.7968771100 -1.8304694073 0.0298395651
C -0.2653262200 -1.6989814473 0.0155843451
C 0.1903661300 -0.2714845873 0.0038373151
N 0.3887129900 0.3967183927 -1.1153884149
O 0.7616006000 1.6737074127 -0.7327126049
N 0.7965018700 1.7930993827 0.6447513051
C 0.4480970500 0.6105963227 1.0962661851
H -2.0899468900 -2.8890424173 0.0429470951
H -2.2328391300 -1.3632025373 -0.8633957249
H -2.2340284100 -1.3452880573 0.9139615451
H 0.1451281300 -2.2005788173 -0.8721052749
H 0.1646718600 -2.1990526773 0.8965701951
H 0.4001465200 0.4208154927 2.1650183051
