16
Molecule 5284 / 7211 from QM7b dataset
C -1.9400087850 0.0572670692 0.3180671537
C -0.4450801850 -0.0091317408 0.4761112637
O -0.0420692350 -0.0512659008 1.8284726837
C 0.4482377650 -0.7663615708 -0.5240222363
N 0.0326535650 -1.4252331008 -1.7421769863
C 0.4820440750 0.7427656792 -0.4560740963
O 1.5569340950 1.4136893392 0.1745358737
H -2.2361765050 0.0073975292 -0.7387233863
H -2.3338387050 0.9891678992 0.7484710037
H -2.4101663850 -0.7877762208 0.8428996037
H 0.7345228450 0.5420745492 1.8937913137
H 1.2925477550 -1.2543147308 -0.0227900163
H -0.5063191850 -0.7955951808 -2.3386072563
H -0.5678512650 -2.2273785008 -1.5346574163
H 0.0273772550 1.2982534192 -1.2873964763
H 2.3812531350 1.1581788092 -0.2763094363
