20
Molecule 7197 / 7211 from QM7b dataset
C -1.3543487703 -0.2639465015 1.6980719051
C -0.2025277203 -0.3005253015 0.6846922551
C -0.3804818503 -1.4508943115 -0.3243658649
N -1.5729546403 -1.2716313215 -1.1711627349
C -0.0382499003 1.0690594985 0.0014502351
C 1.2301033697 1.2323611985 -0.8328527549
O 2.4451651697 1.0286524085 -0.0915054249
H -1.1686773703 0.4866011585 2.4808395351
H -1.4841011303 -1.2383859715 2.1944125751
H -2.3076266803 0.0039347085 1.2146590151
H 0.7306704597 -0.5181449815 1.2331168751
H -0.3773630903 -2.4044649015 0.2427928051
H 0.4961777097 -1.4868766915 -0.9894147949
H -2.4194008703 -1.4810143915 -0.6366308249
H -1.5555043803 -1.9414663915 -1.9419786249
H -0.0571151803 1.8593174285 0.7749143551
H -0.9061756803 1.2496415585 -0.6551417749
H 1.2300162797 2.2296874085 -1.3113152749
H 1.2643185897 0.4899163985 -1.6441622149
H 2.4771716997 1.7071271585 0.6061162351
