19
Molecule 2993 / 7211 from QM7b dataset
N -0.7913808787 -2.6143520146 -0.1155531926
C -1.1531617987 -1.8315157146 1.0735393474
C -1.2903322287 -0.3622562046 0.7210579374
O -0.0012178487 0.1481146054 0.3754835374
C -0.0520895387 1.5196935854 -0.0218231226
C 1.3457350813 1.9664271154 -0.4070097226
N 1.7904789713 1.2741556254 -1.6237648826
H -0.6630661487 -3.5960853746 0.1384392574
H 0.1135497713 -2.2855035046 -0.4619322226
H -0.4374233087 -1.9188160846 1.9162521274
H -2.1318068187 -2.1828513846 1.4381985074
H -1.6985988987 0.1990274754 1.5856284374
H -1.9845810587 -0.2453494546 -0.1338221426
H -0.4315114887 2.1408624054 0.8144697974
H -0.7350833787 1.6374637054 -0.8856282026
H 2.0080660513 1.8231693754 0.4709569274
H 1.3077832613 3.0478802854 -0.6148046826
H 1.8217609613 0.2687894254 -1.4360537126
H 2.7460581113 1.5537783254 -1.8549325026
