20
Molecule 7045 / 7211 from QM7b dataset
C -2.9278115355 -0.7902830626 -0.2777298021
C -1.4059446955 -0.8780219726 -0.1458530021
C -0.7021254055 0.4431408474 -0.4707196821
C 0.8430133945 0.3966046374 -0.4013603321
N 1.5009078545 1.6285292174 -0.8891820121
C 1.3194246845 0.1221150074 1.0016418279
C 1.9637729145 -0.9772191126 1.4034740579
H -3.4091601855 -1.7495112626 -0.0380742921
H -3.2259419455 -0.5143520226 -1.3012933321
H -3.3430882255 -0.0306045626 0.4027275779
H -1.0218322755 -1.6656532526 -0.8179519821
H -1.1370226055 -1.1947548526 0.8748122379
H -1.0644270655 1.2366608174 0.2099303179
H -0.9835530655 0.7622883274 -1.4909104621
H 1.1922858145 -0.4283274126 -1.0485072921
H 1.2342521845 2.4143613174 -0.2868639121
H 1.1371191345 1.8571141574 -1.8191933421
H 1.0907442845 0.9066851974 1.7362525679
H 2.2132213845 -1.7795439226 0.7042782679
H 2.2690714445 -1.1120851126 2.4423493279
