18
Molecule 5798 / 7211 from QM7b dataset
C 0.0200030945 -2.0382998146 -0.5770044685
C -0.6246317655 -0.6792323346 -0.3522624685
O -1.5954985855 -0.8265622946 0.6955120415
C 0.3596582445 0.4357610854 0.0084303815
C 1.3404320945 0.1595960054 1.1272613715
C 0.7043521845 1.4380831454 -1.0363552585
N -0.3300880655 1.7549048554 -0.0195736485
H 0.7912155745 -1.9764046946 -1.3578470185
H -0.7403543955 -2.7636072846 -0.8949552985
H 0.4810623745 -2.4131039446 0.3474902115
H -1.1363717455 -0.3646157046 -1.2830330885
H -1.9836618455 0.0623151854 0.8084298615
H 1.9145919745 1.0645960554 1.3750372415
H 2.0604581845 -0.6238309746 0.8482480915
H 0.8096018745 -0.1744003746 2.0310502815
H 0.3215323045 1.3234951654 -2.0540229085
H 1.6759207545 1.9343412654 -0.9637153285
H 0.0817269745 2.3639311554 0.6958198215
