15
Molecule 1519 / 7211 from QM7b dataset
N -0.8167165931 1.0150672948 -1.2493856455
N 0.0985127569 0.7204282248 -0.2008575255
C 1.0162241169 -0.3947271052 -0.4550139955
C 0.3245990369 -1.7294149252 -0.5231506955
C 0.7049295269 -2.8026349852 0.1762967745
C -0.1961217831 1.1588561748 1.0601179445
O -1.1217934531 1.9248107248 1.3254288845
H -0.4521212131 1.8390684148 -1.7450173655
H -1.6622382131 1.3496691348 -0.7638216555
H 1.7732084969 -0.3875474752 0.3434073745
H 1.5376152969 -0.1819730752 -1.4031221255
H -0.5313110031 -1.7784632352 -1.2024518855
H 1.5579462169 -2.7697801252 0.8596621745
H 0.1802516569 -3.7549617552 0.0892752545
H 0.5006378569 0.7445587248 1.8208391845
