19
Molecule 3292 / 7211 from QM7b dataset
C -1.4939016513 0.7509643831 0.1604088030
C -1.4912106413 -0.7669436469 -0.0840069870
N -0.3179738813 -1.5330765869 0.3437339730
C 0.9065733887 -1.2411857469 -0.3977145570
C 1.7194431887 0.0246973331 -0.0089157770
N 0.9853219287 1.2415054031 0.3487594030
C -0.2637462913 1.5079633931 -0.3700332070
H -2.4103266913 1.1758014531 -0.2901519770
H -1.5726319513 0.9495504131 1.2457526330
H -1.6096279813 -0.9549652569 -1.1662091370
H -2.3780002913 -1.2094606469 0.3998216030
H -0.1714359313 -1.4463331469 1.3526532630
H 1.5894295287 -2.1072572669 -0.3225563670
H 0.6187836087 -1.1807952269 -1.4605005370
H 2.3715713587 -0.2097766269 0.8478609030
H 2.4013119587 0.2452208331 -0.8526339870
H 0.7957405987 1.2481684531 1.3522339530
H -0.4665275213 2.5912534531 -0.3131277570
H -0.1026709813 1.2866175631 -1.4390258770
