15
Molecule 6696 / 7211 from QM7b dataset
O -1.5886455007 -0.3313015165 1.0259998536
C -0.1576762807 -0.3447933665 0.8417028636
C 0.1992010393 -1.5845658465 -0.0080430464
C 0.5725790493 -1.0120712365 -1.3489388664
C 0.6270136593 0.3369934735 -1.3254771864
C 0.3015368093 0.8464367835 0.0009863836
C 0.3570666393 2.1192323735 0.4408567636
H -1.8520319307 0.6022185235 1.1162622036
H 0.3409060093 -0.3575811465 1.8275384436
H -0.6649174707 -2.2653982365 -0.0571456364
H 1.0357116793 -2.1557430465 0.4286547136
H 0.7878643193 -1.6319597665 -2.2203742664
H 0.8941505993 0.9769449035 -2.1673172964
H 0.1314845093 2.3741613735 1.4785328636
H 0.6376707993 2.9403764435 -0.2206713264
