15
Molecule 5011 / 7211 from QM7b dataset
C -1.9114901425 -0.3827719331 0.1221289097
C -0.4124414325 -0.6471163231 -0.0990141703
N -0.0906963825 -1.3677579631 -1.3432911803
C 0.3560312475 0.6596506269 -0.0785429903
C 0.8009728575 1.2847839569 1.1771451097
O 1.7405518475 0.6230837569 0.3074191597
H -2.1022819825 0.1068526069 1.0895166997
H -2.4755389225 -1.3264445031 0.1015058797
H -2.3154203025 0.2661481469 -0.6714298503
H -0.0237604525 -1.2595521231 0.7322749697
H -0.4959021425 -0.8691139231 -2.1423452903
H -0.5381717525 -2.2878407131 -1.3312031803
H 0.1531759075 1.3254351069 -0.9311808403
H 0.6083060375 0.7730527769 2.1273848197
H 0.9016183275 2.3738203469 1.2388606197
