17
Molecule 5321 / 7211 from QM7b dataset
C -3.3882230055 0.6355231788 -0.1219034413
O -2.0850281155 0.3526653788 -0.6105906913
C -1.2327706155 -0.1434679612 0.4253489187
C 0.0913091245 -0.5125014812 -0.1564082313
C 1.2736673545 -0.0595119212 0.3056130787
C 2.5656828945 -0.4506389012 -0.2267802813
C 3.7453330645 -0.0035359212 0.2440836187
H -3.9770627655 1.0062565988 -0.9701684513
H -3.3678709555 1.4101571388 0.6684799087
H -3.8748446455 -0.2700077412 0.2890507387
H -1.7057005555 -1.0378288012 0.8873418287
H -1.1118012655 0.6143045188 1.2257646987
H 0.0668343745 -1.2102601712 -1.0004445113
H 1.2813610845 0.6501772188 1.1421398887
H 2.5550429745 -1.1535276012 -1.0672644113
H 3.7921466845 0.6965806788 1.0816696487
H 4.6921270945 -0.3223768212 -0.1915657813
