13
Molecule 1446 / 7211 from QM7b dataset
C -1.5406556929 -1.5944707639 0.5362074090
C -0.7598052729 -1.1687101639 -0.4570611310
C -0.1155535829 0.2154255061 -0.5423301710
C -0.4117144129 1.0817476461 0.6031080390
C -0.6725248729 1.7987774261 1.5449093290
C 1.3335900771 0.0935526761 -0.7679970010
C 2.5204274471 -0.0337837439 -0.9794895610
H -1.9700251929 -2.5963008739 0.5152325290
H -1.7703278529 -0.9575716139 1.3923616390
H -0.5250143629 -1.8127329139 -1.3084109710
H -0.5383062329 0.7082090661 -1.4419885810
H -0.8905703829 2.4414390261 2.3733038190
H 3.5716618871 -0.1382741839 -1.1545799110
