19
Molecule 5211 / 7211 from QM7b dataset
C -2.5997770296 -1.3038097537 -0.9131395800
C -1.1307730696 -1.2932081237 -0.4927210100
C -0.5159216896 0.1188135263 -0.4663215300
O -1.2158022096 0.9848930963 0.4377074600
C 0.9702186804 0.0683612263 -0.2077636300
C 1.6363869804 0.8417230463 0.6595845000
C 3.1110609304 0.7748000863 0.9148971700
H -3.0182521396 -2.3190550137 -0.8708434700
H -2.7170018796 -0.9351032837 -1.9437804600
H -3.1989728296 -0.6564166337 -0.2585034900
H -0.5348269696 -1.9189477637 -1.1782409000
H -1.0123110396 -1.7405289537 0.5105852900
H -0.6851035196 0.5792520563 -1.4585423200
H -1.0435010796 0.6494210963 1.3378329100
H 1.5215815704 -0.6762477837 -0.7953640100
H 1.0744612704 1.5996273163 1.2171827700
H 3.5959167104 0.0008708163 0.3034834200
H 3.3235811804 0.5575628263 1.9741881700
H 3.5936775904 1.7403405063 0.6931268900
