18
Molecule 1730 / 7211 from QM7b dataset
C -2.3935886664 -0.6201788535 0.3950334000
N -0.9420280764 -0.7399943335 0.5087782900
C -0.2937020664 -1.5405568535 -0.5396763000
C -0.1620631064 -0.0546974135 -0.5368826000
C 1.0757388536 0.6740275665 -0.1128373900
C 0.8374254236 1.9366869265 0.6688691400
C 2.2986059336 0.2290521865 -0.4355756300
H -2.7234429464 0.2987575765 0.9018053700
H -2.8674016664 -1.4771034835 0.8962308300
H -2.7510810864 -0.5881511735 -0.6550550800
H -0.9337159564 -1.9853403835 -1.3098894500
H 0.5396291536 -2.1625712235 -0.2057832400
H -0.7622394764 0.4712181365 -1.2949352400
H 0.2469310836 2.6582038465 0.0804501700
H 1.7791591336 2.4192733065 0.9606039300
H 0.2570782036 1.7149360165 1.5777535300
H 2.4382063436 -0.6897568635 -1.0075929500
H 3.1965755236 0.7744932265 -0.1386196200
