13
Molecule 1162 / 7211 from QM7b dataset
N -2.0163967503 0.3228804415 -0.1044494875
C -0.6215789803 0.4596326215 -0.0022021275
C 0.2425818697 1.5463149115 -0.0364415775
C 1.5772903297 1.0374395615 -0.0222389875
C 1.5190369697 -0.3422669585 0.0230587825
N 0.1738762897 -0.6665439985 0.0084376425
O -0.3306053503 -1.9588697685 0.1400836725
H -2.4683915703 1.2354869215 -0.0912624575
H -2.4035971903 -0.2511338085 0.6483275225
H -0.0591100303 2.5891048015 -0.0676594275
H 2.4898564497 1.6254082315 -0.0309565975
H 2.2734700197 -1.1165132985 0.0892918225
H -0.5937227803 -2.2124706185 -0.7693838675
