19
Molecule 4776 / 7211 from QM7b dataset
C -2.1571240876 -1.6451901457 0.4851717723
C -0.6565920776 -1.3712445457 0.5498923923
C -0.2299117176 0.0787533343 0.6026308423
C -1.0962837876 1.1069779443 0.6517186523
C 1.2606395624 0.3253563543 0.5374035023
C 1.7738593124 0.3227783843 -0.9150855277
O 1.1964202224 1.3600593343 -1.7034697077
H -2.3496777176 -2.7264572057 0.4566393623
H -2.6096893276 -1.2011357257 -0.4134751677
H -2.6792457976 -1.2374416557 1.3628939423
H -0.1552183676 -1.8513261857 -0.3101427177
H -0.2262347476 -1.8729995357 1.4361631323
H -2.1766879176 0.9571470943 0.6533864223
H -0.7405136576 2.1370319043 0.7205033523
H 1.8043899624 -0.4530268957 1.0991889023
H 1.5052446224 1.2987065243 0.9886086123
H 1.5964449524 -0.6687904857 -1.3762491977
H 2.8591516124 0.5015010743 -0.9230100677
H 0.2331513824 1.3317284643 -1.5371387177
