17
Molecule 4319 / 7211 from QM7b dataset
C -1.7930275130 -1.6626764034 0.2263202734
C -0.2537367330 -1.5968835634 0.1931459134
C 0.3185423170 -2.3632863934 -1.0166610966
C 0.2188605070 -0.2134943934 0.2117162234
C 0.5899325270 0.9500009866 0.2103664734
C 1.0812245670 2.2801463166 0.2137473634
C 0.3159553470 3.3895778466 0.2137943034
H -2.1920357630 -1.1385441534 1.1047040134
H -2.1271857830 -2.7096316834 0.2626286534
H -2.2172044330 -1.1945467134 -0.6736052866
H 0.1262413870 -2.0856527034 1.1099613434
H -0.0365934130 -1.9178675234 -1.9570360066
H -0.0057287230 -3.4135570534 -0.9860263966
H 1.4161733470 -2.3368922934 -1.0188670266
H 2.1718121070 2.3878001166 0.2161759734
H -0.7730573530 3.3287971666 0.2111571334
H 0.7710725170 4.3797884666 0.2163308734
