17
Molecule 6271 / 7211 from QM7b dataset
C -1.7782108961 -1.7048825603 0.2503665805
C -0.2356688061 -1.7042330703 0.1929546105
N 0.3463105439 -2.4382079803 -0.9515517295
C 0.2734511539 -0.3302976503 0.2114036105
C 0.6505139839 0.8254723197 0.2351973805
C 1.1334854839 2.2027040097 0.2395414405
N 0.0244118739 3.1725605097 0.1224982505
H -2.1423659461 -1.1815480803 1.1461024805
H -2.1529098261 -2.7388938403 0.2744491805
H -2.1940210161 -1.2012274203 -0.6344331495
H 0.1378045039 -2.2081252903 1.1038482105
H 0.0686372739 -1.9716635403 -1.8204471595
H -0.0624081761 -3.3766938803 -0.9831514295
H 1.9050712739 2.2956797597 -0.5526530295
H 1.6485595439 2.3963128697 1.1961059405
H -0.4802967461 2.9979369497 -0.7506160595
H 0.4154466739 4.1151764797 0.0473876305
