15
Molecule 6051 / 7211 from QM7b dataset
C -2.0170231271 -1.7495163171 -0.5409528872
O -0.6528195971 -1.5431398371 -0.1612708472
C -0.1964414871 -0.2577079171 -0.0115896672
C -1.1738545071 0.8685103229 0.1007717628
C 1.1536428729 -0.1084999371 0.0686385628
C 1.8069469529 1.1222003229 0.2837305628
C 2.4082587829 2.1680545429 0.4679864328
H -2.1484399171 -2.8369878371 -0.5740987472
H -2.2260530771 -1.3316684171 -1.5389386572
H -2.7209543671 -1.3252706271 0.1912865128
H -1.8539626971 0.7257778829 0.9550896128
H -1.7935200971 0.9673691729 -0.8034146372
H -0.6254731771 1.8055629029 0.2471336728
H 1.7706812529 -1.0051474271 -0.0303910272
H 2.9311019329 3.0872369429 0.6319914428
