13
Molecule 3863 / 7211 from QM7b dataset
C -1.8615503521 0.3777630704 -0.3493799800
C -0.3718714821 0.3449609204 -0.6670129200
N 0.5034728379 1.3714566904 -0.0020629600
C 1.2278899979 0.3387352904 0.8030756000
C 0.4396051679 -0.7468968396 0.0583274300
O 0.4383687079 -1.9543073096 0.0514925900
H -2.3659566221 -0.4859139196 -0.8052428900
H -2.3210569221 1.2912849204 -0.7538988200
H -2.0423520721 0.3466649804 0.7356738400
H -0.2176891121 0.3289158204 -1.7605369900
H -0.0418366421 2.0048018704 0.5867591000
H 2.3176403179 0.3219664104 0.6398285100
H 1.0355515379 0.3391669104 1.8898564700
