13
Molecule 385 / 7211 from QM7b dataset
N -1.6280390424 -0.5247417466 -2.2460115558
C -1.4561978024 -0.5373983566 -1.0923663858
C -1.2152547124 -0.5063480066 0.3481081242
C -0.5777162124 0.8194765434 0.8057573342
C 0.8183091476 1.0666745434 0.2027667042
C 1.7909923176 0.0619962534 0.6252219342
N 2.5369203076 -0.7607269566 0.9820346342
H -0.5662434224 -1.3562783166 0.6132011942
H -2.1743744924 -0.6602597666 0.8647319542
H -0.5089236324 0.8083471334 1.9025627542
H -1.2288375324 1.6585082434 0.5230972142
H 1.1883031176 2.0577466034 0.5051537342
H 0.7671106776 1.0638111634 -0.8978346658
