14
Molecule 2845 / 7211 from QM7b dataset
C -2.2003374602 -0.7738848630 -0.3458783236
C -0.7192919002 -0.5008398030 -0.2073727836
O 0.1117895898 -1.3960446430 -0.3331134736
C -0.3068551902 0.9302020270 0.1023606464
C 1.1940424498 1.1791871670 -0.0619499736
O 1.9802367298 0.3981453270 0.8321998564
H -2.7565150902 -0.3438003930 0.4999739764
H -2.3837224402 -1.8517751130 -0.4126983236
H -2.5792914002 -0.2820145030 -1.2555687136
H -0.6107569302 1.1383796570 1.1442129464
H -0.8939971102 1.6212228870 -0.5271709036
H 1.4208517598 2.2328117370 0.1583114464
H 1.4817084398 0.9894903070 -1.1140089036
H 1.7801648198 -0.5291072230 0.5913000164
