14
Molecule 1387 / 7211 from QM7b dataset
N -1.7461367126 0.0539476828 0.1767293608
C -0.2991301226 0.0039224628 -0.0446927692
C 0.4519203374 1.0400312328 0.8454148208
O 0.9813883374 -0.0048846372 1.7062756708
C 0.5392431574 -1.0349544472 0.7839677508
C -0.0079764226 0.0323197828 -1.4711654492
C 0.2583694774 0.0244575328 -2.6551612192
H -1.9426112226 -0.0827554072 1.1721160908
H -2.2035618326 -0.7071008672 -0.3317037492
H -0.2082353726 1.7369198828 1.3844723808
H 1.2503159074 1.5903019728 0.3231560308
H 1.3823343974 -1.4813732372 0.2313449208
H -0.0519971226 -1.8194095672 1.2836263508
H 0.4910469774 0.0302011528 -3.7005017192
