17
Molecule 6134 / 7211 from QM7b dataset
C -3.1074543579 -0.7391475387 1.0701379667
C -1.6589371179 -0.9192394787 0.7336823467
C -1.0444092379 -0.3962881287 -0.3362663233
C 0.4085780821 -0.5811356587 -0.6740074233
C 1.1601098321 0.7357525113 -0.7205401833
C 1.9345421221 1.2329607813 0.4265589067
O 2.6009862121 0.6622825013 -0.7210509333
H -3.6307651279 -1.7080614087 1.1084200767
H -3.6177323779 -0.1043162187 0.3323841767
H -3.2315452679 -0.2786351187 2.0634653467
H -1.0711472579 -1.5372180387 1.4243042267
H -1.6318675579 0.2196801313 -1.0294679033
H 0.5049017921 -1.0596521587 -1.6651483333
H 0.8967774821 -1.2470337187 0.0541231467
H 0.7580159521 1.4825785313 -1.4187208133
H 1.9791870621 0.6274858313 1.3386010067
H 2.0817096721 2.3094972313 0.5630547967
