15
Molecule 233 / 7211 from QM7b dataset
C -2.5245543102 0.1813558890 1.4136489880
C -1.8260104002 -0.2795482710 0.5336244080
C -0.9774831902 -0.7946906210 -0.5351097320
C -0.1728123802 0.3047627490 -1.2568366420
C 0.8551466498 1.0065200390 -0.3471962320
C 1.9142341598 0.1182563090 0.1185749580
C 2.7885968398 -0.6381567610 0.4902336980
H -3.1446358302 0.5701054290 2.1952871680
H -1.6049101202 -1.3265628110 -1.2685920920
H -0.2796817202 -1.5409552910 -0.1188560220
H -0.8658726902 1.0624125290 -1.6520485620
H 0.3487148698 -0.1480445610 -2.1133359320
H 0.3333756398 1.4389511890 0.5233272480
H 1.3073368498 1.8502592690 -0.8932394820
H 3.5629687898 -1.2971617510 0.8258209980
