19
Molecule 4381 / 7211 from QM7b dataset
C -2.2682835285 -2.0793522125 -1.1985208956
N -1.0207460385 -1.8517386725 -0.4802613056
N -0.5325085085 -0.5767950025 -0.6078540156
C 0.2036725015 -0.0992471925 0.3326958344
C 0.8586194815 1.2487147975 0.2114239444
C 0.4016721315 2.1831306775 1.3446303244
C 2.3912549015 1.1077903975 0.1967367944
H -2.5081423385 -3.1501340925 -1.1523746256
H -2.1221222385 -1.7984767025 -2.2493298256
H -3.1228686185 -1.5024117825 -0.7988139056
H -1.0420127485 -2.1958003325 0.4893595844
H 0.3990463215 -0.6770586525 1.2597711144
H 0.5319988915 1.6695568575 -0.7532730256
H 0.6757544715 1.7723667275 2.3297912744
H -0.6881674685 2.3250583775 1.3277980344
H 0.8785515915 3.1703150875 1.2521907244
H 2.7542207515 0.6500530175 1.1309464444
H 2.8725524515 2.0924912675 0.0992808944
H 2.7223578415 0.4775571475 -0.6403354556
