17
Molecule 6515 / 7211 from QM7b dataset
C -2.6376161325 -1.1522856185 -0.0422857525
C -1.1193029325 -1.0058657885 -0.0495575125
C -0.6516631525 0.4446475915 0.0561129075
O -1.4592306825 1.3689708715 0.1511814975
C 0.7999522975 0.7453291515 0.0443011875
C 1.7943754175 -0.1568067385 -0.0561688425
C 3.2503917175 0.1736022615 -0.0660560225
H -2.9228133825 -2.2106185885 -0.1163038125
H -3.0898565025 -0.6099691285 -0.8830579125
H -3.0691109725 -0.7383207685 0.8784624475
H -0.6881884325 -1.4402623285 -0.9677737125
H -0.6675176725 -1.5712586985 0.7837417075
H 1.0282331075 1.8129754815 0.1272487175
H 1.5434639075 -1.2201752685 -0.1384183025
H 3.4260839075 1.2535692015 0.0231635075
H 3.7247766375 -0.1831850585 -0.9945114525
H 3.7719515775 -0.3362469685 0.7599210375
