18
Molecule 6593 / 7211 from QM7b dataset
C -2.7418767337 -1.7797891417 0.5281152904
N -1.3414632837 -1.6827600717 0.1187803604
C -0.8474404137 -0.3050181617 0.1400350504
C 0.6143309163 -0.2519831217 -0.2859323296
C 1.2600732963 1.1187968283 -0.1425222496
C 2.7115815963 1.2214115383 -0.5749101296
O 0.6526405163 2.0815771983 0.3048012204
H -3.0815915037 -2.8205422117 0.4347612004
H -3.4328707637 -1.1322867417 -0.0518658296
H -2.8309009637 -1.4940731217 1.5875341304
H -1.2473575737 -2.0577925717 -0.8292764896
H -0.9355169437 0.0750390583 1.1704632104
H -1.4459070237 0.3864946083 -0.4904576396
H 0.7349859163 -0.5756501217 -1.3363120196
H 1.2019340263 -0.9765980517 0.3053816204
H 3.3344491863 0.5443142083 0.0294635504
H 3.0656448763 2.2509921983 -0.4553582096
H 2.8262376563 0.9062980183 -1.6229195996
