15
Molecule 4352 / 7211 from QM7b dataset
O 0.1228826402 -2.0805217353 0.4769541786
C -0.8103369298 -1.2705575553 -0.2492586614
C -0.3209528698 0.1900317047 -0.2143442814
C -0.2446665798 0.7316785447 1.1891435086
C -0.8208437498 1.8730184647 1.5837329986
C 1.0473507302 0.2872964347 -0.8922340014
O 1.2163754802 0.7707659647 -1.9958557214
H -0.1949921698 -2.9978985953 0.4604322686
H -1.8164827798 -1.3132572753 0.2056843386
H -0.8870514898 -1.5976120353 -1.3021258414
H -1.0168705098 0.7891639247 -0.8224672214
H 0.3303504102 0.1336232047 1.9025264086
H -1.3978028898 2.4936607447 0.8934159786
H -0.7375754698 2.2225823847 2.6137291086
H 1.9030563302 -0.1210217453 -0.3022200714
