19
Molecule 7188 / 7211 from QM7b dataset
C -0.7730236003 -1.6202790585 -1.6016203188
C -1.1635102503 -0.7877339385 -0.3783556988
C -0.6302435903 0.6548727615 -0.3787257288
C -1.1926741203 1.4525495615 0.8019908412
C 0.9211880397 0.7213971415 -0.4057463488
C 1.5690963097 0.0857517315 0.7366934012
C 2.0996362397 -0.4498717685 1.6891779812
H -1.2601768303 -2.6054706285 -1.5761652288
H 0.3113005097 -1.7979192285 -1.6502557588
H -1.0765011503 -1.1250177185 -2.5375792388
H -0.8180954503 -1.2918202885 0.5404388912
H -2.2631625503 -0.7398179985 -0.3089346588
H -0.9640509203 1.1385697115 -1.3154339388
H -0.8613644603 1.0204423015 1.7584710412
H -2.2923312703 1.4467771815 0.7896543012
H -0.8598133103 2.5009625315 0.7740221112
H 1.2303956397 1.7796159915 -0.4476391588
H 1.2981335097 0.2572252115 -1.3317358388
H 2.5728521197 -0.9236656485 2.5246727112
