14
Molecule 5625 / 7211 from QM7b dataset
C -3.0640730720 -0.6211896711 -0.2013112518
C -1.6087741820 -0.5958816711 -0.1768291918
C -0.3932343020 -0.5827650711 -0.1499595218
C 1.0686086480 -0.5391274911 -0.1255602118
C 1.6175885380 0.8694031789 -0.1571539118
C 2.4704933480 1.3675996789 0.7423245082
H -3.4786996720 0.3979549189 -0.1888925218
H -3.4668988220 -1.1552033011 0.6723754382
H -3.4406505520 -1.1245711611 -1.1043718218
H 1.4545993080 -1.0948791711 -1.0001980518
H 1.4481359580 -1.0645469911 0.7666395182
H 1.2716090680 1.4922955389 -0.9879715918
H 2.8222760280 0.7719598689 1.5886218682
H 2.8459748180 2.3887565789 0.6647346482
