13
Molecule 352 / 7211 from QM7b dataset
C -0.4050906230 -2.2576859073 0.6934481318
O -0.8294639630 -1.3383417973 -0.3420734282
N -0.2096292030 -0.1129812873 -0.1793349582
C -0.8659833830 1.0475868927 0.0901872618
C 0.1174007670 2.0309062927 0.0652259818
C 1.3128084670 1.3396012627 -0.2261171382
N 1.1052942270 0.0182195927 -0.3860082682
H -0.9167843130 -3.1955277373 0.4508141818
H -0.7189148030 -1.8946633273 1.6841006018
H 0.6835519370 -2.3951377573 0.6588397518
H -1.9362816830 1.0650514527 0.2606054418
H -0.0197920030 3.0936200227 0.2347183918
H 2.3194660370 1.7342723427 -0.3315537782
