16
Molecule 3628 / 7211 from QM7b dataset
C -3.2082857725 -1.0683372916 0.1119732718
C -1.7305985725 -1.1713344116 0.3305631618
C -0.8555256625 -0.2126469216 -0.0142771682
N 0.5263574675 -0.2909567216 0.1867981618
C 1.4044321775 0.7206959484 -0.1719725482
C 2.8598833075 0.4549968984 0.1647291518
O 1.0283011775 1.7592241784 -0.7096529182
H -3.5784097825 -1.8809084616 -0.5340081882
H -3.4780179025 -0.1131195716 -0.3590035482
H -3.7618246325 -1.1455608616 1.0618877918
H -1.3602831125 -2.0895150216 0.8019374618
H -1.1562426825 0.7240573784 -0.4869492382
H 0.9032704075 -1.1267622616 0.6262320318
H 3.0580645475 -0.5656817616 0.5173404818
H 3.1747829875 1.1648817584 0.9420381418
H 3.4683156175 0.6552670984 -0.7259339382
