18
Molecule 6919 / 7211 from QM7b dataset
C -2.1994410151 0.0933960435 0.1290990976
C -0.7019889351 -0.0909788765 0.1744408576
C -0.1911703551 -1.4373458965 0.4338117876
C -0.9438561651 -2.5257763865 0.6883408376
C 0.1119962049 0.9783800435 -0.0180440124
C 1.6105745849 1.0339000235 -0.0005406624
N 2.0936800549 1.7413814235 -1.2021574624
H -2.4601584051 1.1329527635 -0.1054955224
H -2.6615162851 -0.1651252965 1.0950984576
H -2.6579956551 -0.5580678365 -0.6310769124
H 0.8946180049 -1.5635434465 0.4158863676
H -2.0332903751 -2.4855158165 0.7342482376
H -0.4808363351 -3.4970891165 0.8641565376
H -0.3546126951 1.9477325335 -0.2258030924
H 2.0511561449 0.0305256635 0.1416701676
H 1.9237137449 1.6354093735 0.8722598776
H 1.8967675649 1.1746015535 -2.0310180424
H 3.1097079949 1.8489999535 -1.1574712724
