14
Molecule 4292 / 7211 from QM7b dataset
O -1.4348428973 -1.7821493311 -0.0268021127
N -0.0929510773 -1.3603715511 0.0869136473
C 0.0169291027 -0.0593814911 0.1222895773
C -1.1240916473 0.8592225589 0.1497982373
C -1.0394785473 2.1898335489 -0.0259026627
C 1.3976100227 0.4612887389 0.1693113973
C 2.4576933827 -0.1234344911 -0.4078645027
H -1.3356136273 -2.7487437411 0.0296882573
H -2.0982538073 0.3978430389 0.3174544073
H -0.0941109273 2.6947090589 -0.2315696627
H -1.9320051573 2.8149397089 0.0161083873
H 1.5306347227 1.3953510089 0.7220533973
H 2.3505032227 -1.0419825011 -0.9863128227
H 3.4562724127 0.3025057489 -0.3071928727
