15
Molecule 3100 / 7211 from QM7b dataset
N -2.1014450401 0.0367045798 1.1018032027
C -0.9446516401 0.0418016698 0.5499754327
N -0.2441861001 -1.1399791802 0.3716965027
C 0.8470558599 -1.2933223102 -0.5828673373
C 1.6794101799 -0.0175599002 -0.5741997873
C 0.7466907899 1.1599382898 -0.7903775673
O -0.2968955801 1.2125973798 0.2123404527
H -2.4371606301 0.9986699498 1.2112010927
H -0.8432783701 -1.9461404802 0.5307499527
H 1.4529628199 -2.1606821702 -0.2822421273
H 0.4766127899 -1.4862687602 -1.6100318673
H 2.1987788399 0.0899531898 0.3902310627
H 2.4348168199 -0.0467381302 -1.3729264173
H 1.2658586299 2.1235682398 -0.7067873773
H 0.2749605899 1.1046348298 -1.7886003273
