18
Molecule 5837 / 7211 from QM7b dataset
C 0.7340526934 1.2707780006 -0.2187581086
C -0.7329833466 1.2687696606 0.2332571814
C -1.4658123666 0.0019379906 -0.2299055686
C -0.7340926366 -1.2707115894 0.2188048514
C 0.7329560434 -1.2688333994 -0.2331732986
C 1.4658509234 -0.0019364594 0.2297394314
H 0.7732497534 1.3416593706 -1.3214056386
H 1.2506582134 2.1635807206 0.1696428914
H -1.2488284366 2.1664748506 -0.1447024286
H -0.7721050766 1.3268567606 1.3366615514
H -2.5003624366 0.0002298906 0.1502578214
H -1.5380533966 0.0082629606 -1.3331584386
H -0.7732941066 -1.3413248894 1.3214755914
H -1.2506904666 -2.1636139094 -0.1693525486
H 1.2487488434 -2.1664519294 0.1450613614
H 0.7721114934 -1.3272444394 -1.3365601486
H 1.5384377634 -0.0082223894 1.3329867114
H 2.5002999934 -0.0002322194 -0.1506936586
