13
Molecule 2047 / 7211 from QM7b dataset
C 0.7254808781 -3.1993384530 -0.1979025472
N 0.5307925881 -2.0794026330 -0.7935510272
N -0.1464244219 -1.1586129930 0.0460067628
C -0.3111791619 -0.0255427730 -0.5430552672
C -0.9710845719 1.1105831170 0.1711570728
C 0.0668207381 2.0814973170 0.7363626328
O 0.1160106381 3.2633805570 0.4679295228
H 1.2386724181 -3.9849786930 -0.7576358072
H 0.3966533481 -3.3829439030 0.8346129028
H 0.0647852681 0.1340289770 -1.5653347872
H -1.5328505419 0.7072337870 1.0291922528
H -1.6410968819 1.6717431170 -0.4938767172
H 0.7949468281 1.6107863970 1.4430444728
