14
Molecule 2179 / 7211 from QM7b dataset
O -1.7665414590 0.2372265467 0.3110977678
C -0.3988468590 0.0551415767 -0.0243543922
C 0.6111250810 0.9680037567 0.7402998178
N 0.8596718110 -0.1468668833 1.6950453778
C 0.3242971510 -1.1210827333 0.7048279678
C -0.3203078490 0.0701728667 -1.5376070722
O 0.7164929710 -0.0615701533 -2.1599513422
H -1.8357267490 0.2301000367 1.2824920978
H 0.1766023810 1.8760886667 1.1860760678
H 1.4672525210 1.2296810067 0.0954267178
H 1.8426260810 -0.2859758233 1.9388351678
H 1.0811772610 -1.5821393133 0.0476762678
H -0.3409279790 -1.8927874033 1.1220732078
H -1.3059234290 0.2144370667 -2.0460665022
