18
Molecule 6751 / 7211 from QM7b dataset
C -2.5138744831 -0.1737298550 0.3791666644
C -1.0200574631 -0.2195443350 0.3275547544
C -0.2358537831 -1.3109374150 0.2648061444
C 1.2287664269 -0.9602274950 0.2872649544
C 1.2405290469 0.5709193650 -0.0184856056
N 1.4685247969 0.9202975250 -1.4306807556
C -0.1780711431 1.0376462950 0.3924353044
H -2.9536557631 -1.1791744550 0.3331600944
H -2.9222701031 0.4211807250 -0.4542273956
H -2.8626055631 0.3105832850 1.3064054444
H -0.6084972631 -2.3373062950 0.2349952444
H 1.6686975069 -1.1742245650 1.2795573844
H 1.8306630969 -1.5211851350 -0.4474779756
H 2.0182136969 1.0844735050 0.5669018044
H 0.7676052569 0.4423565250 -2.0076802256
H 2.3760311269 0.5542780950 -1.7321989456
H -0.5323595131 1.8383495650 -0.2771563656
H -0.1901276631 1.4538267150 1.4160329244
