14
Molecule 2900 / 7211 from QM7b dataset
C -2.2529532453 -0.8992582823 0.0640479495
C -0.9892199053 -1.2333869023 -0.2209898505
C 0.0865843947 -0.3150880723 -0.7168061805
N -0.1982136353 1.1363467677 -0.9014902105
C 0.6003263447 1.5326468377 0.2974003995
C 1.1048505647 0.0902600077 0.3931609695
O 1.9451982447 -0.4907819423 1.0299357095
H -2.9606527553 -1.6437181923 0.4283428095
H -2.6379070653 0.1160143777 -0.0577959105
H -0.6597886553 -2.2679919223 -0.0822414205
H 0.5831625447 -0.7667704923 -1.5954820505
H -1.1899392953 1.3648663677 -0.8199689105
H 1.3714266147 2.2951587377 0.1053912095
H 0.0220791847 1.8232277577 1.1918203495
