17
Molecule 6706 / 7211 from QM7b dataset
C -2.0756896631 0.0023454247 1.2191911100
C -0.6086219631 -0.0072080053 0.7944171200
C -0.2592094031 1.1869238247 -0.0992131000
N 1.1645624069 1.1351707847 -0.4297591600
N 1.6550799069 -0.0161054353 -1.0053238200
C 1.0218680369 -1.1211081453 -0.7866846100
C -0.2271977331 -1.2928026353 0.0412889500
H -2.3217855531 0.9049306547 1.7984072500
H -2.3113127531 -0.8720466453 1.8436600100
H -2.7395432531 -0.0273000053 0.3402821900
H 0.0280001169 0.0685057347 1.6921885700
H -0.4579623831 2.1389352647 0.4161857500
H -0.8895283131 1.1514920547 -1.0134220800
H 1.5085422069 1.9384050447 -0.9514351700
H 1.4783779669 -2.0092219353 -1.2343865500
H -1.0592112531 -1.6136599753 -0.6142164100
H -0.0799686231 -2.1224004153 0.7543204800
