19
Molecule 4215 / 7211 from QM7b dataset
C -1.5611006387 -1.4001842339 0.0584462894
C -0.0381877287 -1.2115148839 -0.0123520006
C 0.6213135913 -2.2298371339 -0.9435416106
N 0.3389863413 0.1375849561 -0.4308245206
C 0.2550450813 1.2584754461 0.3807908894
C 0.4936286113 2.5582797261 -0.3532659306
N 0.0338295713 1.2923062861 1.6537614194
H -2.0243428387 -0.6256671339 0.6845157494
H -1.8150528487 -2.3831113339 0.4815491494
H -2.0037865587 -1.3376004239 -0.9474009106
H 0.3837809013 -1.3557499539 0.9977544794
H 0.2569817413 -2.1087299539 -1.9766758106
H 0.3799070113 -3.2540237839 -0.6280164906
H 1.7135908913 -2.1132072439 -0.9454717506
H 0.3451368213 0.3063901261 -1.4335995006
H 1.4590966813 2.5443067761 -0.8804912206
H 0.4901330613 3.3788127261 0.3707576794
H -0.2961770087 2.7383918361 -1.0991565606
H -0.1231727387 0.3496361461 2.0352110694
