19
Molecule 5348 / 7211 from QM7b dataset
C -2.6898852573 -0.1299842816 -0.5122100517
N -1.2414690073 -0.1295299016 -0.5333450717
C -0.5330014273 0.8535401584 0.3185047383
C 0.5355867227 -0.2292149416 0.6381287883
C 1.7921997827 -0.1734448016 -0.2214831917
N 2.6752549327 0.9184834984 0.2238953683
C -0.5327370273 -1.2398994516 0.1464024083
H -3.0711002573 -0.9728837716 -1.1079467617
H -3.0694320873 0.7984776284 -0.9645493517
H -3.1096015773 -0.2127976216 0.5165580083
H -1.1091374573 1.1383121084 1.2232872183
H -0.2156677473 1.7724784184 -0.2046752417
H 0.8173324327 -0.3044319816 1.6966915283
H 1.4918449627 -0.1120844816 -1.2870539817
H 2.3449346627 -1.1196527416 -0.0954144617
H 2.2297842627 1.8193976584 0.0273865883
H 3.5375788027 0.9109127084 -0.3258116217
H -0.2055793673 -2.0564513616 -0.5193288817
H -1.1104348673 -1.6699318316 0.9909487383
