18
Molecule 2923 / 7211 from QM7b dataset
C -1.8505556437 -0.2115655266 1.0216345212
C -0.3331311037 -0.2279567466 0.8576778212
C 0.2409795663 -1.4633593666 0.1828515812
C 1.2919692763 -1.1218586466 -0.5708417888
C 1.5101871163 0.3732166434 -0.4794903688
N 0.2506052063 0.9185406734 0.0874169212
C -0.6149263337 1.4071319234 -0.9917180788
H -2.1894098237 0.7290959834 1.4783594212
H -2.1493458437 -1.0313269566 1.6903405112
H -2.3755858637 -0.3506028966 0.0664456212
H 0.1040098363 -0.1717315866 1.8766694312
H -0.1301585637 -2.4742475166 0.3582233912
H 1.9393912363 -1.8005923466 -1.1268759488
H 2.3582170763 0.5925388834 0.1990423412
H 1.7419330363 0.8503594534 -1.4442138988
H -0.0990076137 2.2351758634 -1.4979148288
H -1.5460682437 1.8143539234 -0.5768129388
H -0.8753489437 0.6435428034 -1.7558636788
