13
Molecule 1350 / 7211 from QM7b dataset
O -1.7995945964 -0.0174826692 1.9926628628
C -0.9363705864 -0.0114449092 1.1469402728
C -0.1367801464 1.1023831808 0.4577066828
C 0.8201799436 -0.0091169592 -0.1076327372
C -0.1676617564 -1.1166667292 0.4103443128
C 1.1045397836 0.0172787508 -1.5271574072
C 1.3252110336 0.0395979908 -2.7213945172
H 0.3035887336 1.8668959308 1.1113402028
H -0.7248019464 1.5971176908 -0.3293348572
H 1.7599219736 -0.0344404292 0.4640794128
H -0.7687463564 -1.5608330192 -0.3967421172
H 0.2508872136 -1.9203202392 1.0305092428
H 1.5211975236 0.0592534708 -3.7739944272
