16
Molecule 2645 / 7211 from QM7b dataset
N -1.6960936150 -1.2175332975 -0.8760852058
C -0.3619941850 -1.0162340875 -0.2833159358
C -0.0348880350 0.4876783525 -0.2558633158
N -1.0479191050 1.3069641725 0.4339356742
C 1.3223107250 0.8245452325 0.3054686042
C 2.2411683750 -0.0307120275 0.7696062742
H -2.0203423950 -2.1701155575 -0.7016766858
H -1.6434696850 -1.1165089675 -1.8933737858
H 0.4445742250 -1.5626787075 -0.8105460558
H -0.3925607350 -1.3920726675 0.7527343342
H -0.0332170450 0.8349220125 -1.3109084458
H -0.9924626250 1.1114177025 1.4393982742
H -1.9651596850 0.9588883625 0.1318011842
H 1.5279062550 1.9000910725 0.3355405242
H 2.0898574450 -1.1120203275 0.7756316342
H 3.1933820050 0.3303961325 1.1610719842
