15
Molecule 4390 / 7211 from QM7b dataset
C -2.0592212357 0.2979017246 -0.1497677801
C -0.5902475057 -0.0028147154 -0.0470861301
C -0.1197575657 -1.3901293254 -0.0891467201
C -0.9272079157 -2.4581783554 -0.2178710301
N 0.1892830843 1.0401072646 0.0783584599
N 1.5582302443 0.7267542646 0.1727498499
C 2.2726879043 1.7884554846 0.2812239799
H -2.2138617357 1.3805818646 -0.0915780101
H -2.6187009957 -0.1901316154 0.6624123499
H -2.4716648857 -0.0737559554 -1.0999011101
H 0.9597719043 -1.5188709154 -0.0063270301
H -2.0118507657 -2.3687532754 -0.3037167001
H -0.5180983657 -3.4692654754 -0.2400176501
H 3.3556224643 1.6660219946 0.3630211899
H 1.8286669943 2.7947337946 0.2942348799
