19
Molecule 6888 / 7211 from QM7b dataset
C -2.1348445594 -1.0183660260 -1.1342275655
C -0.8637444094 -1.2256425260 -0.3044346755
C -0.0154428494 0.0405225940 -0.1402175155
C -0.6710094694 1.0962368640 0.7496126045
O 0.1537076106 2.2475300840 0.9021699945
O 1.2496820006 -0.2389215560 0.4967093145
C 2.2343111906 -0.7718630160 -0.3809263155
H -2.6599383994 -1.9718415960 -1.2849425955
H -1.9002995394 -0.6082500060 -2.1285190755
H -2.8410854794 -0.3304881760 -0.6479737755
H -0.2455316794 -1.9994503460 -0.7862204655
H -1.1151097694 -1.6098314060 0.6980314445
H 0.1849036506 0.4933345040 -1.1333099055
H -0.9010737194 0.6357581240 1.7312199845
H -1.6143008794 1.4384691740 0.3017016245
H 1.0368143306 1.8933927040 1.1240564845
H 3.1620304006 -0.8602106160 0.1991206845
H 2.4091027906 -0.1022622160 -1.2434196355
H 1.9617519906 -1.7728157060 -0.7596184355
