20
Molecule 3837 / 7211 from QM7b dataset
C -2.3537867029 -1.2648913394 -0.1058676193
N -0.9499705829 -0.9956573394 0.1999419307
C -0.6205414129 0.4324449806 0.2751712307
C -1.1557643929 1.0638242806 1.5626603207
C 0.8949193071 0.5838401706 0.2115188307
O 1.3627575471 0.0468090306 -1.0255499093
C 2.7783385471 0.0869439906 -1.1219338493
H -2.4795013829 -2.3377267594 -0.3062602593
H -2.7388919429 -0.7003192694 -0.9822999293
H -2.9915597029 -1.0197002194 0.7564387507
H -0.3685298829 -1.3950852694 -0.5411675393
H -1.0449287729 0.9890403506 -0.5928968793
H -0.7444829329 0.5473256306 2.4426787407
H -2.2507132329 0.9982533006 1.6118227807
H -0.8875042329 2.1290358406 1.6155958807
H 1.3580951771 0.0392434506 1.0596593607
H 1.1712430671 1.6538284606 0.2918812707
H 3.0506934871 -0.3515077194 -2.0903288293
H 3.2570836771 -0.4958455494 -0.3124067593
H 3.1577383071 1.1256143906 -1.0772043093
