17
Molecule 3842 / 7211 from QM7b dataset
C -3.4274424994 -1.1765618798 0.0119721241
C -1.8993137194 -1.1705540198 0.0121135541
C -1.3228469994 0.2598809002 -0.0054868459
C 0.1321938906 0.3087812302 -0.0057112259
C 1.3523294806 0.3491005002 -0.0057071959
C 2.7702333706 0.3450508102 -0.0058348259
C 3.5484337906 1.4456614902 -0.0063461059
H -3.8205947894 -2.2026734198 0.0245987141
H -3.8297214494 -0.6766234598 -0.8825730159
H -3.8299427494 -0.6547049898 0.8938118341
H -1.5154938094 -1.7178090798 -0.8629818959
H -1.5157488394 -1.6960102198 0.9005765041
H -1.7041328794 0.8188051402 0.8681798441
H -1.7036057994 0.7968565102 -0.8930595259
H 3.2468052306 -0.6418188598 -0.0060162759
H 3.1161450506 2.4469900402 -0.0061810759
H 4.6347661506 1.3588341502 -0.0063519759
