12
Molecule 1364 / 7211 from QM7b dataset
O -1.8289360061 -1.8642537201 0.4106557630
C -0.6435489161 -1.7079312001 0.1394215030
C -0.0265243661 -0.3869871001 0.0055963230
N 1.2390786639 -0.3049040101 -0.2774722170
O 1.6292838639 1.0019616099 -0.3579452370
C 0.4582162439 1.8919456199 -0.1194444170
C -0.7090072961 0.9463177599 0.1738862730
H 0.0523549839 -2.5626989301 -0.0253186370
H 0.3306231439 2.4894852999 -1.0314501070
H 0.7305372739 2.5462893499 0.7180507430
H -1.5485206461 1.0503995999 -0.5270516170
H -1.1161422561 1.0491191599 1.1896328330
