17
Molecule 3208 / 7211 from QM7b dataset
C -1.9162734058 -1.3871528255 1.5557576533
O -0.7836767258 -1.1197559855 0.7411201333
C -0.7069154558 0.2581692245 0.3631388633
C 0.6024521942 0.4710227045 -0.3483999167
O 1.7344730642 0.1966741545 0.4541255833
C 0.7037382242 0.2062034745 -1.8347392367
C 0.7565495142 1.6245013545 -1.2911465167
H -1.8845311058 -2.4531031255 1.8150390733
H -2.8602111358 -1.1753902555 1.0182550033
H -1.8989466058 -0.7866640455 2.4849383233
H -0.7462049958 0.8965276445 1.2685078533
H -1.5577085758 0.5288517645 -0.2928381467
H 1.6223100842 -0.7221802455 0.7637259133
H -0.1906507758 -0.1173242455 -2.3687366867
H 1.6413878942 -0.2242991955 -2.1851452567
H 1.7281549742 2.1183261345 -1.2778722867
H -0.0972768858 2.2834466245 -1.4555045967
