19
Molecule 4302 / 7211 from QM7b dataset
C -1.8415930183 0.1084756877 -0.6010800689
C -0.3873496083 0.0023186277 -0.1831075489
C -0.1351020483 0.0981519477 1.3087309911
N -0.5252547683 -1.1352837323 2.0171304511
C 0.5136589517 -0.9144762123 -0.9927126589
C 0.6603888517 0.5725045477 -1.1525467289
N 1.9021435117 1.2193813077 -0.7939625789
H -1.9398997383 0.0978934377 -1.6967343189
H -2.2957585883 1.0428601877 -0.2324671589
H -2.4424384183 -0.7340786623 -0.2200052789
H -0.6489294083 1.0083975777 1.6863890811
H 0.9409045417 0.2520962277 1.4911514111
H -1.5325085983 -1.2866730823 1.9177585911
H -0.3603477083 -1.0197618623 3.0201323611
H 0.0813307417 -1.4966138823 -1.8081158489
H 1.2944092517 -1.4383730723 -0.4366057889
H 0.2299196117 0.9955779177 -2.0666778389
H 2.4389613817 0.6572407477 -0.1325087289
H 1.7361169617 2.1309038477 -0.3601954989
