17
Molecule 4988 / 7211 from QM7b dataset
C -2.5315847766 0.0561905442 -0.4551225978
C -1.2839000066 -0.2589710158 0.3739059522
C -0.0384807466 0.4965275742 -0.0942120178
C -0.0960766566 2.0027261842 0.0967603422
O 1.1133254334 0.0328584542 0.7041778522
C 1.8010414734 -1.0236223358 0.2209632922
O 1.5787583834 -1.6350910058 -0.8038260778
H -3.3764345766 -0.5659309258 -0.1294777178
H -2.3622642866 -0.1484871858 -1.5231273178
H -2.8405462766 1.1065122342 -0.3564793678
H -1.0680566766 -1.3361706258 0.3104924622
H -1.4594999766 -0.0253455958 1.4370449922
H 0.1728177434 0.2404433942 -1.1439059578
H -0.2686149366 2.2576726242 1.1524086022
H -0.9111255466 2.4308704542 -0.5015005078
H 0.8431978934 2.4704234142 -0.2261001478
H 2.6278603834 -1.2492330758 0.9240609422
