15
Molecule 2119 / 7211 from QM7b dataset
C -2.0502887764 -0.8939125744 0.6132242035
C -0.5487290564 -0.9118625244 0.6923661735
C 0.1803512236 -2.0371782544 0.6739057735
C 0.1340696536 0.4240475456 0.8258932035
O -0.1606949864 1.2797809856 -0.3339967365
C 0.8053058236 1.3519545556 -1.2809378465
O 1.8904682436 0.8132000256 -1.2610985265
H -2.4853851764 -0.4335434144 1.5154270435
H -2.4597558764 -1.9064861244 0.5086039335
H -2.3893644564 -0.2902210044 -0.2423705165
H -0.2926973364 -3.0191833344 0.6114219035
H 1.2703091636 -2.0085048044 0.7168259635
H 1.2210873836 0.3155629356 0.9179368235
H -0.2649139464 0.9908935456 1.6802308435
H 0.4382809836 2.0093416256 -2.0940229365
