14
Molecule 2640 / 7211 from QM7b dataset
C -2.4426876196 -2.2743112354 0.0218465818
C -1.1252480396 -2.2493785554 0.3074422218
C -0.3047527896 -1.0970352054 0.2543537418
C 0.4283539304 -0.1207626854 0.2226991618
C 1.3071250904 1.0108631346 0.1678615418
C 1.3424899304 1.9313921446 -1.0184232782
N 0.6892762004 2.3715661446 0.2221930018
H -3.0079471096 -3.2032912654 0.0892676518
H -2.9759121496 -1.3721223754 -0.2793216582
H -0.6269524496 -3.1772522054 0.6092954818
H 2.2612326304 0.8773993446 0.6882136518
H 0.6579371404 1.7348360946 -1.8455184182
H 2.3144963704 2.3468282546 -1.2972370682
H 1.3205291504 2.9880335546 0.7452695218
