13
Molecule 678 / 7211 from QM7b dataset
C -0.1794871540 -1.8359553219 0.4084022950
C 1.2805284060 -1.3670243119 0.2306945350
C 0.1414818360 -0.4187873819 0.0837406150
O -0.0679259240 0.6047436981 1.0640723050
C -0.5003114340 1.7097286881 0.3383671950
C -0.5680960940 1.4263559581 -0.9646846650
O -0.1859000840 0.1110578881 -1.2064642450
H -0.5218634540 -2.0527838519 1.4203997350
H -0.6155622440 -2.4447624119 -0.3837975850
H 1.8018701960 -1.6685615319 -0.6779716650
H 1.8953833760 -1.2764389219 1.1263205450
H -0.7162831940 2.6110105781 0.8984049350
H -0.8576299740 2.0192176681 -1.8233402950
