13
Molecule 1764 / 7211 from QM7b dataset
N -1.8033477323 -0.9466221900 0.5544245110
C -0.7218084423 -0.7110038900 -0.2683082590
N -0.2760539223 -1.4061070900 -1.2509509390
C -0.0826779123 0.6733918300 0.0009800310
O -0.2902697923 1.1062075000 1.3659706310
C 1.3270585277 0.7232218600 -0.3630596790
C 2.5192014777 0.8224340400 -0.5624123090
H -1.8129337223 -0.4210626300 1.4272710110
H -2.1715131323 -1.8915984200 0.5916620910
H -0.8268096723 -2.2655483400 -1.3848531290
H -0.6446217723 1.3952776800 -0.6179441590
H 0.5155475677 0.8658334400 1.8592784110
H 3.5676587477 0.8882801900 -0.7706929790
