15
Molecule 6648 / 7211 from QM7b dataset
C -2.3986732775 -0.0001585275 0.1131397935
C -1.0498064375 -0.0292848375 0.0516665835
O -0.3492743975 1.1249514925 0.3393269135
C 0.9728744825 1.1958326025 -0.2344172965
C 1.8276611325 -0.0099940975 0.1370239535
C 1.0621532525 -1.2685227375 -0.1529118965
C -0.2835083075 -1.2412219175 -0.2211685665
H -2.9303958575 0.9226893125 0.3376816335
H -2.9671383075 -0.9161509375 -0.0322114765
H 1.3951381025 2.1352360925 0.1451194135
H 0.8829401425 1.2667087425 -1.3334748065
H 2.1149409325 0.0319185325 1.2029965535
H 2.7662211525 0.0222549725 -0.4399237565
H 1.6073680425 -2.2021190875 -0.3060156265
H -0.8590840975 -2.1400524775 -0.4487826665
