15
Molecule 1967 / 7211 from QM7b dataset
N -2.0549787791 0.0011636425 -0.5326270389
C -0.5898970891 0.0330548625 -0.6121744289
C 0.0126770109 1.1782661425 0.2183317311
C 1.3994953209 0.6430171625 0.6229720511
O 1.4079127909 -0.7750972275 0.3354257411
C 0.0617784809 -1.1757921175 0.0693199811
H -2.4211604991 -0.7304493375 -1.1478155989
H -2.4382472891 0.8793610525 -0.8915610089
H -0.2014647091 0.0947814925 -1.6489164589
H -0.6278482291 1.3346384925 1.0999937311
H 0.0732151309 2.1239308225 -0.3380694489
H 2.2180559609 1.0988658525 0.0434890411
H 1.6029047409 0.8071151025 1.6956320911
H 0.1051109009 -2.0780866075 -0.5585122289
H -0.4933392191 -1.4088008475 1.0000472211
