15
Molecule 2344 / 7211 from QM7b dataset
C -3.1125534723 -1.2469896021 0.3688079561
N -1.6549223023 -1.2041091921 0.2605700061
C -1.1219417023 0.1548458779 0.3370910761
C 0.3738783177 0.1415304779 0.3277989261
C 1.1252620677 0.8949257579 -0.4981844039
C 2.5482989177 0.8919014479 -0.4805718339
N 3.7182993077 0.9144222879 -0.4915519039
H -3.4564237223 -2.2817193721 0.2389635661
H -3.6430983423 -0.6072678321 -0.3666571539
H -3.4129979723 -0.9203299921 1.3760616961
H -1.3636217323 -1.6268617121 -0.6239755939
H -1.4543979023 0.5795813379 1.3033944461
H -1.5053535123 0.8379806779 -0.4525242639
H 0.8568427077 -0.5323966321 1.0409395461
H 0.6577466677 1.5615380979 -1.2289792839
