16
Molecule 1522 / 7211 from QM7b dataset
N -1.1901394874 -1.7540066557 -1.0943423605
C -0.7812260274 -0.9239189157 -0.0799319305
O -1.2166161274 -1.0315365757 1.0661253395
C 0.2544491726 0.1206650643 -0.4606884305
C -0.0573966674 1.5945806043 -0.0586077605
C 1.4239705326 1.7592930043 0.3681690495
C 1.5208485726 0.2135968943 0.4430232295
H -0.9042463074 -1.6056652257 -2.0548046205
H -1.9281377474 -2.4236278957 -0.8984806405
H 0.5345398926 0.0531346043 -1.5240316905
H -0.7294592074 1.6006586343 0.8107758495
H -0.4557336774 2.2565364143 -0.8393653305
H 2.0392918126 2.1665894143 -0.4475051005
H 1.6304475226 2.3283940643 1.2844446795
H 2.4357063826 -0.2739301357 0.0800159595
H 1.2776232626 -0.1570505857 1.4485597595
