15
Molecule 5345 / 7211 from QM7b dataset
C -1.8498778753 -1.5917743367 0.2218591728
C -0.3095297253 -1.5608908067 0.1886462428
C 0.2564412047 -2.3351155367 -1.0206978772
C 0.1960334547 -0.1927296367 0.2091656628
C 0.5835216447 0.9657851533 0.2128757328
C 1.1060574847 2.3042960633 0.2163104728
O 0.4180953847 3.3185206333 0.2252535828
H -2.2378710053 -1.0534618067 1.0959382528
H -2.2031973353 -2.6314958667 0.2654471628
H -2.2633459353 -1.1215451267 -0.6812118172
H 0.0674001647 -2.0485083567 1.1072666728
H -0.0870129653 -1.8832177667 -1.9617302972
H -0.0921900453 -3.3766683767 -0.9894368272
H 1.3540188447 -2.3331772167 -1.0171366772
H 2.2215580747 2.3624840533 0.2098784228
