19
Molecule 5571 / 7211 from QM7b dataset
C -0.9529431396 -1.9026112233 -1.2656296897
C -0.6094517796 -1.3671331533 0.1258784703
C 0.2031615104 -0.0781557133 0.1058448603
O 1.4466082104 -0.3919748233 -0.5432759997
C -0.4818961796 1.2109733267 -0.4592527897
C 0.0449636904 2.0114658667 0.7644286503
C 0.3937719004 0.6691165267 1.4654065503
H -1.5365772496 -2.8313429933 -1.1957306397
H -0.0401526796 -2.1120134333 -1.8387851997
H -1.5507746996 -1.1760465533 -1.8370912697
H -0.0335699596 -2.1201939433 0.6900803703
H -1.5319837796 -1.1785923433 0.6983193103
H 1.9753571504 0.4226281167 -0.5966558497
H -1.5787169496 1.1258348967 -0.4671858997
H -0.1494710796 1.5256195667 -1.4588433897
H 0.9334093004 2.6161148067 0.5305773303
H -0.6786707196 2.6601192567 1.2753423303
H 1.3915164604 0.5708167967 1.9160754503
H -0.3588674896 0.3709206367 2.2100491403
