16
Molecule 1926 / 7211 from QM7b dataset
C -1.6711863185 -2.3642182553 -0.5643997356
O -0.4532914685 -1.6310489453 -0.3759423456
N -0.7795493185 -0.2991670853 -0.0804595856
C 0.2916404115 0.4243025547 0.0972664444
C 1.6827942815 -0.1276595753 -0.0105131256
C 0.0085487915 1.8197929547 0.4146805144
C 0.9130716815 2.7866985047 0.6566939844
H -1.3610211485 -3.3907987553 -0.7932922656
H -2.2510838385 -1.9489863453 -1.4019320656
H -2.2811083585 -2.3488242053 0.3509963244
H 1.8199371715 -0.6183208953 -0.9843677656
H 1.8435527315 -0.9013071053 0.7545692644
H 2.4434274115 0.6501319747 0.1077601644
H -1.0582958485 2.0572700847 0.4510690644
H 1.9890541915 2.6084966147 0.6366415544
H 0.5895015815 3.8014026947 0.8869430944
