19
Molecule 7167 / 7211 from QM7b dataset
C -1.4603079016 -1.4022761635 1.2219157595
C -1.4931482016 -0.7331821235 -0.1629677505
C -0.8096034916 0.6188287465 -0.1911013005
C -1.5376622216 1.7575560865 -0.1660821605
C 0.6521201384 0.6950508565 -0.2258988705
C 1.5144472784 -0.3371118535 -0.3239454805
C 3.0033357984 -0.1973035835 -0.3724393205
H -1.9446168616 -2.3889875135 1.1903119395
H -1.9909218816 -0.7853663535 1.9612719095
H -0.4311204716 -1.5392723935 1.5814164195
H -2.5398891616 -0.6044910135 -0.4773252305
H -1.0267928916 -1.3998840235 -0.9069195305
H -2.6287573316 1.7348632165 -0.1536937505
H -1.0591751416 2.7390013765 -0.1584762905
H 1.0686633584 1.7090621265 -0.1787943505
H 1.1256061084 -1.3599151135 -0.3768586105
H 3.3141783084 0.8556390965 -0.3238583205
H 3.4155999884 -0.6348492935 -1.2965867505
H 3.4821375884 -0.7351719035 0.4626273095
