14
Molecule 4713 / 7211 from QM7b dataset
C -2.0509397396 -2.6583305761 0.0025662114
C -0.5124612996 -2.6304918861 -0.0007253886
C 0.0372163804 -1.2825673961 -0.0005858486
C 0.4567437204 -0.1367147261 -0.0005065986
C 1.0438515004 1.1480487839 -0.0004405286
N 0.3055364504 2.2135073439 -0.0005101786
O 1.1223369504 3.3624503439 -0.0004251486
H -2.4125760796 -3.6955525861 0.0024500314
H -2.4511895496 -2.1498858261 -0.8843725586
H -2.4473604596 -2.1514253761 0.8921016814
H -0.1288609696 -3.1721728661 -0.8824721986
H -0.1250450596 -3.1739331261 0.8782606714
H 2.1400219104 1.2309159339 -0.0003497886
H 0.4610960804 4.0782344939 -0.0004924786
