15
Molecule 1435 / 7211 from QM7b dataset
C -1.0015216453 -1.3690039983 -1.4580028716
C -1.1198090553 -0.4981713483 -0.2317957816
O -1.6991116953 -0.8453143183 0.7858807684
C -0.4131992353 0.8651186317 -0.3099942216
C 1.0351577247 0.6722119417 0.1686366284
C 1.2638178847 0.8438417517 1.6499734084
O 1.9177193247 0.3602523317 -0.6160944316
H -1.5790259653 -0.9197322383 -2.2807839016
H -1.3802178353 -2.3753401183 -1.2507168816
H 0.0460984847 -1.4045133383 -1.7928678016
H -0.9503087253 1.5634464117 0.3434629184
H -0.3826366453 1.2290460117 -1.3444209416
H 1.1291919947 1.9031874217 1.9186596284
H 2.2745471947 0.5218604117 1.9214129784
H 0.5068164247 0.2785594617 2.2140603384
