16
Molecule 1463 / 7211 from QM7b dataset
C 0.9363397528 -0.0008864436 0.9873171050
C 0.3482418328 -1.0317194936 -0.0213502250
C 0.7615056828 -0.0162423336 -1.1276866150
C 0.3676181328 1.0244988264 -0.0378799350
C -1.1515944572 0.7945248664 0.0895494650
C -1.1663609572 -0.7711363736 0.1020843950
H 2.0348661828 -0.0111090036 1.0036421850
H 0.5351244228 0.0111357664 2.0129064450
H 0.6799399828 -2.0779705936 -0.0411469450
H 0.1972887228 -0.0185376736 -2.0735171150
H 1.8424528528 -0.0279988136 -1.3239934250
H 0.7189496328 2.0638640364 -0.0744441650
H -1.5609416572 1.2291276664 1.0133712950
H -1.7078807472 1.2163309564 -0.7604512750
H -1.7305330572 -1.1959378536 -0.7412043650
H -1.5837662572 -1.1831387736 1.0326322250
