15
Molecule 3604 / 7211 from QM7b dataset
C -3.3566674438 -1.2798703470 -0.0022706958
C -1.9027602538 -1.2172730470 -0.0015812858
C -0.6897521338 -1.1549475370 -0.0005367558
C 0.7748604162 -1.0961925470 0.0020435442
C 1.3183800362 0.2651603030 0.0018904642
C 1.7816454662 1.3879538130 0.0014664042
C 2.3268549962 2.7372183930 -0.0002442658
H -3.7943686938 -0.2704041970 0.0086241642
H -3.7330721338 -1.8173232270 0.8809721042
H -3.7333362538 -1.7983553170 -0.8966601958
H 1.1627301362 -1.6428258270 -0.8766189958
H 1.1593000462 -1.6415172670 0.8830118142
H 1.5552140862 3.4739520530 -0.2695097958
H 3.1488951362 2.8338104330 -0.7251680458
H 2.7192711762 3.0103691630 0.9907444942
