13
Molecule 3181 / 7211 from QM7b dataset
O -1.5203796786 0.9759678302 1.7317656617
C -1.7063292186 0.3240033602 0.7238247017
C -0.5832348586 -0.1795609998 -0.2026369383
O -0.9174515186 -0.8395654098 -1.1837746783
C 0.8003707514 0.1704907202 0.1622533517
C 1.8970702614 -0.8397445998 -0.1849625483
C 1.7892657814 0.4075306702 -0.9829945483
H -2.7221270586 0.0210004302 0.3681901417
H 0.9118112714 0.7615833402 1.0704653117
H 1.5462356514 -1.7640515098 -0.6452989983
H 2.7023946914 -0.9385925198 0.5421767717
H 2.5169134414 1.2033889402 -0.8279848583
H 1.3645652814 0.3291370502 -1.9843803483
