14
Molecule 1862 / 7211 from QM7b dataset
C -0.5691833346 -2.5563444332 -0.9153182071
O -0.9759221246 -1.3365422532 -0.2854711871
C 0.1091636254 -0.4942036632 -0.0368951871
C 0.5760071754 0.4552028168 -1.1046283371
C -0.2387647746 0.9730730968 0.0854838029
C 0.3889294354 1.7725540668 1.0973725929
N 0.9132943154 2.4193489068 1.9170431329
H -1.4792935246 -3.1484695232 -1.0649081971
H 0.1311184854 -3.1208982732 -0.2750938971
H -0.0894052746 -2.3644766532 -1.8905483571
H 0.8598746154 -0.8871963532 0.6599086929
H 0.0461155454 0.4401610868 -2.0566563071
H 1.6319126054 0.7201713268 -1.1452128071
H -1.2829184246 1.2159127668 -0.1191095471
