14
Molecule 987 / 7211 from QM7b dataset
N -1.5934700009 -1.5435433977 0.5197278054
C -0.2866600709 -1.3773636177 0.1937744454
C 0.3437527291 -0.1649309277 0.0775084354
C -0.3689854809 1.1361578123 0.3351139954
O -1.6759112809 1.2170756223 -0.2908273446
C 1.7452537791 -0.1646289877 -0.2981427646
O 2.4406324991 0.8370253723 -0.4767837146
H -2.0184440609 -2.4598199577 0.4465953254
H -2.1992767509 -0.7264345277 0.4269526354
H 0.2878317191 -2.2954212577 0.0323816454
H 0.2805947391 1.9664577623 0.0168876054
H -0.5732247309 1.2613762223 1.4107811554
H -1.5278396809 1.2401660623 -1.2535131346
H 2.1867132891 -1.1897341477 -0.4268160646
