21
Molecule 7141 / 7211 from QM7b dataset
C -0.4878959503 -2.2163289328 -1.3116540237
C -0.8328031003 -1.4321868428 -0.0451056237
C -0.2886338003 0.0143693172 -0.0268983537
C -0.8437228803 0.7849500172 1.1923897763
C -0.5045216503 2.2759786172 1.1999433963
C 1.2161848797 0.0242602172 -0.0319014337
C 1.9971801497 0.5527021072 -0.9812659337
H -0.9005045703 -3.2346020328 -1.2715719137
H 0.5996375997 -2.2961231428 -1.4517307637
H -0.9004141403 -1.7237054428 -2.2059961037
H -0.4495488603 -1.9665929128 0.8424491063
H -1.9284924303 -1.3877867928 0.0747967863
H -0.6404736003 0.5245007772 -0.9440467937
H -0.4648559803 0.3098126672 2.1149390663
H -1.9391254303 0.6554015272 1.2099855363
H 0.5824000997 2.4413899672 1.2025671163
H -0.9257582703 2.7733259372 2.0853761263
H -0.9123107003 2.7785120772 0.3088548063
H 1.6887523897 -0.4548050728 0.8369306963
H 1.5700579297 1.0387700172 -1.8626176437
H 3.0859100797 0.5194354272 -0.9129828437
