15
Molecule 5325 / 7211 from QM7b dataset
O -1.6577768607 -1.6446081714 0.9512996507
N -0.5640500807 -1.6544063314 0.0104301707
C -0.1007663607 -0.4571036114 -0.1130203393
C -0.4917051307 0.8062752486 0.6190130007
C 0.3749741093 1.8937749486 -0.0455904793
C 1.5633434393 1.1061211686 -0.6217823293
N 0.9272302593 -0.1587074114 -1.0039722393
H -1.9150076207 -2.5820132414 0.9399241607
H -0.2577283807 0.6760648586 1.6877871807
H -1.5718793207 0.9904873586 0.5538731207
H -0.1812150507 2.3683311186 -0.8669192393
H 0.6931032493 2.6799378586 0.6507692907
H 2.0169182593 1.5935456186 -1.4960875493
H 2.3494830493 0.9648577786 0.1454962107
H 1.5112031093 -0.9369563014 -1.3021650193
