13
Molecule 307 / 7211 from QM7b dataset
N -1.6346714143 -2.2846557445 0.5762385465
C -0.3384007643 -2.0616132045 -0.0953122235
C 0.1187081757 -0.6847183445 0.0536357465
C 0.4812669957 0.4723388455 0.1375252065
C 0.9326760657 1.8453483755 0.2990559065
O 0.6370097557 2.6056776555 -0.8874873635
H -1.9538294243 -3.2353751945 0.3737569365
H -2.3318409443 -1.6515319445 0.1760663865
H -0.3379535043 -2.2986780545 -1.1792637235
H 0.4021057557 -2.7356863245 0.3683651665
H 2.0204590057 1.8438232155 0.5038707865
H 0.4306431457 2.2836233355 1.1824515565
H 0.9515349857 3.5128599055 -0.7284458435
