20
Molecule 1060 / 7211 from QM7b dataset
C -2.2042244846 -0.7713694719 0.3629350864
C -0.6982600646 -0.7128557019 0.2698517964
C -0.0732017046 -2.0879644519 0.2881302364
C 0.0000040054 0.4445546881 0.1777181664
C -0.6277474446 1.8156476281 0.0978305564
C 1.5142528054 0.4964737481 0.1333786964
N 1.9822660554 0.8859368081 -1.2152506336
H -2.6763157346 0.2079068881 0.4959902464
H -2.5060918346 -1.4055109019 1.2131655164
H -2.6356368446 -1.2403340219 -0.5382789736
H -0.5342429846 -2.7212152219 -0.4883431936
H -0.2675290646 -2.5934690919 1.2494832264
H 1.0092091054 -2.0911732519 0.1196097564
H -1.6866331846 1.8038303881 -0.1834320436
H -0.0847379146 2.4125628081 -0.6500041236
H -0.5380286746 2.3463608381 1.0616055864
H 1.9550154654 -0.4444731319 0.5051321664
H 1.8487044454 1.2889962381 0.8259973564
H 1.7763604254 0.1296519881 -1.8734159036
H 2.9991257354 0.9983901881 -1.2098224136
