18
Molecule 5258 / 7211 from QM7b dataset
C -2.7609548131 -0.7181715840 -0.8810356630
C -1.2766696631 -0.7683993040 -0.6752478530
C -0.6270317731 -0.2446870440 0.3721519470
C 0.8657670969 -0.2957769840 0.6211816370
N 1.6846279969 -1.0905139240 -0.3081310430
C 1.5028795369 1.0757282960 0.7317274570
C 0.9201538569 2.2423522860 0.4347985470
H -3.0139630631 -0.2016429940 -1.8211524330
H -3.2676519731 -0.1958960540 -0.0573809330
H -3.1880531031 -1.7311326340 -0.9589012630
H -0.6982832431 -1.2791129440 -1.4550770730
H -1.2087093231 0.2619728460 1.1528905670
H 1.0006607669 -0.7689490940 1.6162330770
H 1.6232181869 -0.6863626940 -1.2469977430
H 1.3167943369 -2.0434441340 -0.3686701130
H 2.5470383469 1.0524722260 1.0593873470
H -0.1132302331 2.2965499360 0.0856306470
H 1.4649178769 3.1828690160 0.5294987870
