18
Molecule 3648 / 7211 from QM7b dataset
C 1.8793430723 0.1166934008 -0.7118081806
C 1.8430626723 -0.1450563992 0.7798693694
C 0.5574880823 0.0076844408 0.0063073594
C -0.3595477377 1.2215020508 0.2265811394
C -1.7461330277 0.6920203608 -0.1687571306
N -1.6693475977 -0.7155665892 0.2510249994
C -0.3698506877 -1.1870776092 -0.2535072006
H 2.1991441323 1.1033516808 -1.0525193006
H 2.1739641423 -0.7059219592 -1.3671404706
H 2.1165311423 -1.1415613292 1.1318999694
H 2.1322877323 0.6680903408 1.4487841394
H -0.3591957877 1.5105750208 1.2885898894
H -0.0601537077 2.0948282808 -0.3703386506
H -2.5690067977 1.2084780908 0.3467053894
H -1.8941630477 0.8123531008 -1.2645204406
H -2.4420090277 -1.2676286092 -0.1258876106
H -0.3854505477 -1.4104434792 -1.3430414906
H -0.0526892877 -2.0977524792 0.2781814394
