13
Molecule 5759 / 7211 from QM7b dataset
C -2.1893215881 -1.2672298650 -0.0267709840
C -0.6824966881 -1.3698824650 0.0610383460
C -0.0342809581 -2.5506162850 0.1828303860
C 0.0373101219 -0.1481254350 0.0095157360
C 0.6051120119 0.9399169750 -0.0352993140
C 1.2518213619 2.1302974950 -0.0853236240
C 1.8319668419 3.2050787550 -0.1305752340
H -2.5834797581 -0.6488157450 0.7927024560
H -2.6502421181 -2.2616889850 0.0270131360
H -2.4902490681 -0.7866814950 -0.9690666640
H -0.5903009181 -3.4880032450 0.2231845460
H 1.0525031119 -2.5970638850 0.2436878660
H 2.3411021319 4.1456183050 -0.1700132140
