22
Molecule 5495 / 7211 from QM7b dataset
C -2.2021124210 -0.4807292434 0.0345129846
C -0.6700298510 -0.6353811934 0.0244348946
C -0.2395346510 -1.3878911434 1.2974585946
C -0.2644425110 -1.4491648134 -1.2191010454
C -0.0535478010 0.7851958766 -0.0108529254
C 1.4726597990 0.8900993466 -0.0247432354
N 1.8695590790 2.3099449866 -0.0061425554
H -2.5524359410 0.0501350966 -0.8643825754
H -2.5372104510 0.0899375166 0.9143432146
H -2.6972297610 -1.4637554334 0.0599737246
H -0.5036242710 -0.8178485734 2.2017590446
H 0.8442954290 -1.5737603234 1.3189095246
H -0.7425666910 -2.3652955634 1.3579432246
H -0.5365602310 -0.9184940034 -2.1451504854
H -0.7789428010 -2.4225916234 -1.2284708254
H 0.8169035390 -1.6470677234 -1.2475623954
H -0.4204298910 1.3571894566 0.8584014846
H -0.4445105810 1.3045372166 -0.9062137154
H 1.8813866690 0.3298886866 -0.8890697054
H 1.8890967390 0.4245119966 0.8830087546
H 1.5474359590 2.7647775166 -0.8656211654
H 2.8895233490 2.3854478766 -0.0151258254
