14
Molecule 6276 / 7211 from QM7b dataset
C -2.0904871743 -1.1712116120 -0.0006412565
C -0.5960899643 -1.0122183320 -0.0008222965
C 0.0726144757 0.1667308380 -0.0001821665
C -0.6017315443 1.5197723280 0.0015123635
C 1.4985471757 0.1813958680 -0.0004464065
C 2.7145048457 0.2550557780 -0.0002598165
H -2.3701173343 -2.2319698920 -0.0164642365
H -2.5569484843 -0.6937737220 -0.8770167965
H -2.5530482743 -0.7219604720 0.8927615835
H 0.0031704757 -1.9259764320 -0.0007606365
H -1.6945751243 1.4308410480 -0.0007145265
H -0.2963718343 2.1034117580 -0.8798588465
H -0.3001537643 2.0987393780 0.8873049535
H 3.7838974557 0.3035391280 -0.0002140165
