14
Molecule 984 / 7211 from QM7b dataset
C -2.5908070226 -0.2741845671 0.0627235596
C -1.0908230026 -0.2569206271 0.0361992896
C -0.2850963926 0.8701574929 -0.0651271304
N 1.0200843974 0.4332193129 -0.0461648604
O 2.1277197874 1.2653038029 -0.2130895604
C 1.0897149974 -0.9342173971 0.0401712596
C -0.2193859826 -1.3870764071 0.1021565096
H -3.0017188226 0.7421484729 -0.0079129204
H -2.9739196226 -0.7239816371 0.9917727896
H -3.0016118526 -0.8577084471 -0.7756955104
H -0.5165175826 1.9257064129 -0.1572685504
H 2.3816545074 1.5251342829 0.6962471996
H 2.0463641374 -1.4439795971 0.0412817496
H -0.5182154226 -2.4288360671 0.1827048196
