11
Molecule 3312 / 7211 from QM7b dataset
C -2.9771301245 -0.0147544218 -0.0056473804
C -1.7606470245 0.0062095782 -0.0032988904
C -0.3476116245 0.0053013882 -0.0006229204
C 0.5095862655 1.1081684082 0.0022493396
N 1.7699999855 0.6047271882 0.0040116496
N 1.8154941055 -0.7502007218 0.0026572196
C 0.5325301355 -1.1177786018 -0.0003861804
H -4.0473176045 -0.0315015718 -0.0077145504
H 0.3027654955 2.1729256182 0.0031215596
H 2.6418903255 1.1241030282 0.0062641996
H 0.2638373855 -2.1700904418 -0.0021171004
