17
Molecule 1009 / 7211 from QM7b dataset
C -1.5383976983 -0.0035068203 -0.0161242378
C -0.0000138583 -0.0000038603 0.0000017522
C 0.5011723917 -0.7131099503 1.2677458022
C 0.5275885517 -0.7349379403 -1.2443348278
C 0.5096328517 1.4515712797 -0.0072891478
H -1.9261100183 0.5026360497 -0.9138311878
H -1.9448011183 0.5158947397 0.8655990122
H -1.9320428083 -1.0318152703 -0.0125953978
H 0.1393478317 -0.2068094703 2.1761103222
H 1.6015258117 -0.7271246403 1.3053875622
H 0.1496212417 -1.7560523903 1.3005817122
H 0.1827442217 -0.2461956503 -2.1687796678
H 0.1789162217 -1.7791591003 -1.2649985578
H 1.6284978517 -0.7469573803 -1.2600018078
H 0.1663720617 1.9872484497 -0.9059554378
H 1.6101399217 1.4849048297 0.0050853422
H 0.1458953517 2.0033535797 0.8734020622
