15
Molecule 4706 / 7211 from QM7b dataset
O -2.0100467133 0.0895217064 -0.6100348781
C -0.5794652033 0.0525879764 -0.6491296781
C -0.0027378033 1.1899809764 0.1960273819
C 1.4089366667 0.6928566264 0.4961840219
N 1.2023754867 -0.7420973536 0.7779893519
C 0.0491806667 -1.2165021036 -0.0192848581
H -2.3465063133 -0.5705327636 -1.2397605381
H -0.2319609833 0.1632917264 -1.6940390081
H -0.5914314733 1.2671899264 1.1233136519
H -0.0266384333 2.1587613264 -0.3190957081
H 2.0681113767 0.8814018864 -0.3770180381
H 1.8582036467 1.1963895364 1.3659413719
H 2.0428469067 -1.2883549336 0.5957721519
H 0.3385807267 -1.9469023836 -0.7953046981
H -0.7029461133 -1.6962773536 0.6317631719
