13
Molecule 2469 / 7211 from QM7b dataset
O -2.5425986084 0.4945102440 0.6807194058
C -1.3453327384 0.7046795740 0.6626405358
C -0.4374521184 0.3310023240 -0.4964779342
N 0.9521578316 0.2415940340 -0.0628277842
C 1.4050493616 -1.1025162060 0.3274292158
C 1.8464448216 -0.4953329360 -0.9619317542
H -0.8220829284 1.2182176840 1.5097517958
H -0.5200599384 1.1494602340 -1.2355958842
H -0.8335174584 -0.5854188760 -0.9801307942
H 0.6804639316 -1.9214270460 0.2700324458
H 2.0854423116 -1.1388890760 1.1802872358
H 2.8534073516 -0.0844159460 -1.0600404042
H 1.4197748216 -0.9117636960 -1.8802255342
