12
Molecule 6018 / 7211 from QM7b dataset
C -2.4718825436 0.2660649960 0.0033217660
C -1.0020550036 0.1064030360 0.0012724160
C -0.2278950136 -1.0004998840 -0.0033621040
C 1.1722879864 -0.5322592740 -0.0032153540
O 2.2215799264 -1.1562521840 -0.0062366240
C 1.0200356964 1.0024379060 0.0027795660
N -0.2108251136 1.3600397460 0.0050458760
H -2.9937695936 -0.6971618140 -0.0008826940
H -2.7822021436 0.8581229860 -0.8724870840
H -2.7806850736 0.8494764360 0.8854804060
H -0.5381984436 -2.0406355640 -0.0068164740
H 1.8550449064 1.7070565260 0.0044999660
