15
Molecule 5844 / 7211 from QM7b dataset
C -2.4812543261 0.4252769189 0.7153011155
C -1.2570110761 -0.1469524011 0.0456550055
O -1.1742514961 -0.4520659511 -1.1287035545
O -0.2352073761 -0.2683818711 0.9483705555
C 1.0445643039 -0.7232132011 0.4036830655
C 1.9222466339 0.4438293989 0.0717197355
C 2.4154740639 0.6729413489 -1.1493750545
H -2.3684823361 1.5170512289 0.7832623255
H -2.5955855361 0.0376384589 1.7343551555
H -3.3650128361 0.1997157189 0.1104987255
H 0.8580082939 -1.3481359611 -0.4793311345
H 1.4766637339 -1.3315405511 1.2113548355
H 2.1597701539 1.1195213989 0.8997938155
H 2.1751596039 0.0166279689 -1.9889525245
H 3.0710323039 1.5214119289 -1.3502204145
