16
Molecule 6512 / 7211 from QM7b dataset
C -2.1461659600 -1.2657707839 -0.4586746508
C -0.6664760700 -1.0939403639 -0.3310133208
C 0.0308500100 0.0188679261 0.0111417992
C -0.6056915500 1.3435284861 0.3423411492
C 1.4917238000 -0.0655406839 0.0605042792
C 2.3405204100 0.9346151261 0.3664061392
H -2.5020972900 -2.0779206039 0.1966134892
H -2.4161970000 -1.5625291039 -1.4860382708
H -2.7143353100 -0.3607005839 -0.2115767908
H -0.0769077300 -1.9925042639 -0.5489879808
H -1.6992495200 1.3090802561 0.2913402592
H -0.2592460200 2.1259241361 -0.3510293808
H -0.3238664200 1.6677685961 1.3562605092
H 1.9106547700 -1.0491502739 -0.1803291208
H 1.9945142100 1.9392854761 0.6151580992
H 3.4181664700 0.7701881261 0.3743568192
